 vasp.5.3.5 31Mar14 (build May 27 2014 14:39:49) gamma-only

 executed on           LinuxIFORT date 2020.09.26  09:59:20

 INCAR:
 POTCAR:    PAW_PBE Ce 23Dec2003
 POTCAR:    PAW_PBE O 08Apr2002
 POTCAR:    PAW_PBE Pt 04Feb2005
 POTCAR:    PAW_PBE Ce 23Dec2003
   VRHFIN =Ce : [core= Kr 4d10]

   TITEL  = PAW_PBE Ce 23Dec2003
   POMASS =  140.115; ZVAL   =   12.000    mass and valenz
   ENMAX  =  273.042; ENMIN  =  204.781 eV

 POTCAR:    PAW_PBE O 08Apr2002
   VRHFIN =O: s2p4

   TITEL  = PAW_PBE O 08Apr2002
   POMASS =   16.000; ZVAL   =    6.000    mass and valenz
   ENMAX  =  400.000; ENMIN  =  300.000 eV

 POTCAR:    PAW_PBE Pt 04Feb2005
   VRHFIN =Pt: s1d9

   TITEL  = PAW_PBE Pt 04Feb2005
   POMASS =  195.080; ZVAL   =   10.000    mass and valenz
   ENMAX  =  230.283; ENMIN  =  172.712 eV

 Optimization of the real space projectors (new method)

 maximal supplied QI-value         = 13.98
 optimisation between [QCUT,QGAM] = [ 10.21, 20.42] = [ 29.18,116.73] Ry
 Optimized for a Real-space Cutoff    1.65 Angstroem

   l    n(q)    QCUT    max X(q) W(low)/X(q) W(high)/X(q)  e(spline)
   0     10    10.208     8.553    0.18E-04    0.75E-05    0.12E-06
   0     10    10.208     8.106    0.26E-04    0.16E-04    0.24E-06
   1     10    10.208     4.160    0.93E-05    0.96E-06    0.75E-07
   1     10    10.208     3.597    0.23E-04    0.26E-04    0.15E-06
   2      9    10.208     8.183    0.11E-03    0.28E-03    0.51E-06
   2      9    10.208     6.077    0.74E-04    0.19E-03    0.37E-06
   3      9    10.208   116.013    0.19E-03    0.98E-05    0.18E-06
   3      9    10.208   108.937    0.19E-03    0.10E-04    0.18E-06
 Optimization of the real space projectors (new method)

[...]

   l    n(q)    QCUT    max X(q) W(low)/X(q) W(high)/X(q)  e(spline)
   0      9    10.150    20.381    0.17E-03    0.18E-03    0.41E-06
   0      9    10.150    15.268    0.18E-03    0.20E-03    0.43E-06
   1      9    10.150     5.964    0.16E-03    0.20E-03    0.36E-06
   1      9    10.150     5.382    0.13E-03    0.16E-03    0.33E-06
 Optimization of the real space projectors (new method)

 maximal supplied QI-value         = 14.36
 optimisation between [QCUT,QGAM] = [ 10.20, 20.39] = [ 29.12,116.47] Ry
 Optimized for a Real-space Cutoff    1.55 Angstroem

   l    n(q)    QCUT    max X(q) W(low)/X(q) W(high)/X(q)  e(spline)
   2      9    10.197    66.195    0.14E-03    0.26E-03    0.16E-06
   2      9    10.197    64.643    0.14E-03    0.26E-03    0.16E-06
   0      9    10.197    95.520    0.52E-04    0.23E-04    0.61E-07
   0      9    10.197    63.403    0.50E-04    0.22E-04    0.58E-07
   1      9    10.197    19.961    0.18E-03    0.80E-04    0.90E-07
   1      9    10.197    13.289    0.15E-03    0.68E-04    0.78E-07
  PAW_PBE Ce 23Dec2003                  :
  PAW_PBE O 08Apr2002                   :
  PAW_PBE Pt 04Feb2005                  :

 POSCAR: CeO2-110-l3-p23:
  positions in direct lattice
  velocities in cartesian coordinates
 exchange correlation table for  LEXCH =        8
   RHO(1)=    0.500       N(1)  =     2000
   RHO(2)=  100.500       N(2)  =     4000

 VTST: version 3.1, (03/28/14)

 CHAIN: initializing optimizer

 OPT: Using VASP Conjugate-Gradient optimizer
 CHAIN: Read ICHAIN            0

 POSCAR: CeO2-110-l3-p23:
  positions in direct lattice
  velocities in cartesian coordinates

 ion  position               nearest neighbor table
   1  0.771  0.167  0.000-  36 2.38  40 2.38  39 2.38  44 2.38  52 2.38  54 2.38
   2  0.771  0.500  0.000-  36 2.38  38 2.38  40 2.38  46 2.38  58 2.38  59 2.38
   3  0.271  0.167  0.000-  41 2.38  45 2.38  43 2.38  37 2.38  50 2.38  51 2.38
   4  0.771  0.833  0.000-  38 2.38  46 2.38  44 2.38  39 2.38  49 2.38  53 2.38
   5  0.271  0.500  0.000-  41 2.38  42 2.38  45 2.38  47 2.38  56 2.38  57 2.38
   6  0.271  0.833  0.000-  42 2.38  47 2.38  43 2.38  37 2.38  48 2.38  55 2.38
   7  0.521  0.000  0.079-  60 2.36  49 2.38  50 2.38  54 2.38  48 2.38  44 2.38  43 2.38  66 2.40

   8  0.521  0.667  0.079-  61 2.37  62 2.38  48 2.38  49 2.38  56 2.38  59 2.38  38 2.38  42 2.38

[...]

  24  0.522  0.334  0.236-  78 2.36  77 2.36  70 2.36  72 2.37  68 2.39  80 2.39  84 2.43  87 2.50
                           107 3.17
  25  0.766  0.503  0.321- 105 2.29  84 2.32 104 2.36  91 2.39  93 2.43  89 2.43  77 2.45  75 2.55

[...]

  29  0.273  0.165  0.317- 100 2.32  99 2.35  95 2.37  90 2.40  94 2.41  78 2.41  82 2.46  87 2.46
                           107 3.07
  30  0.776  0.836  0.315-  89 2.33  88 2.33 101 2.35  96 2.36  85 2.36  83 2.38  91 2.38  73 2.49

  31  0.024  0.001  0.385-  95 2.23  85 2.24 101 2.31 100 2.33 102 2.34  97 2.40
  32  0.524  0.996  0.385-  98 2.28 103 2.28  88 2.29  90 2.29  99 2.30  96 2.30 107 3.03
  33  0.025  0.668  0.384-  86 2.24  91 2.24  97 2.31 104 2.32 101 2.33 106 2.41
  34  0.536  0.683  0.387- 105 2.06  96 2.22  98 2.26  89 2.26  92 2.29
  35  0.023  0.332  0.384-  94 2.23  93 2.24 102 2.31 104 2.33 100 2.33 106 2.45
  36  0.646  0.333  0.000-   1 2.38   2 2.38  10 2.38
  37  0.146  0.000  0.000-   3 2.38   6 2.38   9 2.38
  38  0.646  0.667  0.000-   4 2.38   2 2.38   8 2.38
  39  0.896  0.000  0.000-   1 2.38   4 2.38   9 2.38
  40  0.896  0.333  0.000-   1 2.38   2 2.38  11 2.38
  41  0.146  0.333  0.000-   3 2.38   5 2.38  11 2.38
  42  0.396  0.667  0.000-   6 2.38   5 2.38   8 2.38
  43  0.396  0.000  0.000-   3 2.38   6 2.38   7 2.38
  44  0.646  0.000  0.000-   1 2.38   4 2.38   7 2.38
  45  0.396  0.333  0.000-   3 2.38   5 2.38  10 2.38
  46  0.896  0.667  0.000-   4 2.38   2 2.38  12 2.38
  47  0.146  0.667  0.000-   6 2.38   5 2.38  12 2.38
  48  0.396  0.833  0.079-   8 2.38   7 2.38   6 2.38  18 2.39
  49  0.646  0.833  0.079-  14 2.37   8 2.38   7 2.38   4 2.38
  50  0.396  0.167  0.079-  10 2.38   7 2.38   3 2.38  15 2.39
  51  0.146  0.167  0.079-  11 2.38   9 2.38   3 2.38  15 2.39
  52  0.896  0.167  0.079-  11 2.38   9 2.38   1 2.38  13 2.39
  53  0.896  0.833  0.079-  12 2.38   9 2.38   4 2.38  14 2.38
  54  0.646  0.167  0.079-  10 2.38   7 2.38   1 2.38  13 2.38
  55  0.146  0.833  0.079-  12 2.38   9 2.38   6 2.38  18 2.39
  56  0.396  0.500  0.079-  17 2.36  10 2.38   8 2.38   5 2.38
  57  0.146  0.500  0.079-  17 2.36  12 2.38  11 2.38   5 2.38
  58  0.896  0.500  0.079-  11 2.38  12 2.38   2 2.38  16 2.41
  59  0.646  0.500  0.079-   8 2.38  10 2.38   2 2.38  16 2.39
  60  0.647  0.002  0.156-  13 2.36  23 2.36   7 2.36  14 2.38
  61  0.396  0.666  0.157-  20 2.37  18 2.37   8 2.37  17 2.38
  62  0.645  0.665  0.157-  20 2.34  16 2.36   8 2.38  14 2.40
  63  0.895  0.667  0.157-  19 2.32  12 2.37  14 2.38  16 2.38
  64  0.147  1.000  0.156-  22 2.33   9 2.37  18 2.38  15 2.38
  65  0.896  0.000  0.157-  22 2.34   9 2.37  14 2.38  13 2.39
  66  0.396  0.999  0.158-  23 2.34  18 2.37  15 2.39   7 2.40
  67  0.146  0.666  0.157-  19 2.34  12 2.37  18 2.38  17 2.39
  68  0.396  0.333  0.157-  15 2.37  17 2.37  10 2.38  24 2.39
  69  0.895  0.333  0.157-  21 2.33  13 2.37  16 2.37  11 2.37
  70  0.645  0.335  0.158-  24 2.36  16 2.36  13 2.38  10 2.39
  71  0.146  0.333  0.157-  21 2.36  11 2.37  15 2.37  17 2.38
  72  0.647  0.168  0.235-  13 2.36  24 2.37  23 2.38  26 2.44
  73  0.646  0.836  0.233-  14 2.31  23 2.35  20 2.40  30 2.49
  74  0.396  0.826  0.237-  20 2.32  28 2.38  18 2.40  23 2.46
  75  0.895  0.501  0.235-  16 2.34  19 2.36  21 2.38  25 2.55
  76  0.146  0.834  0.235-  18 2.35  22 2.36  19 2.40  28 2.45
  77  0.644  0.500  0.237-  20 2.36  24 2.36  16 2.40  25 2.45
  78  0.396  0.170  0.236-  24 2.36  15 2.37  23 2.41  29 2.41
  79  0.896  0.167  0.235-  21 2.34  13 2.36  22 2.39  26 2.43
  80  0.394  0.500  0.235-  17 2.35  27 2.37  20 2.39  24 2.39
  81  0.144  0.499  0.235-  27 2.30  17 2.38  21 2.38  19 2.39
  82  0.146  0.165  0.235-  22 2.35  15 2.35  21 2.40  29 2.46
  83  0.897  0.834  0.235-  19 2.36  30 2.38  14 2.38  22 2.39
  84  0.649  0.337  0.317- 107 2.01  25 2.32  26 2.40  24 2.43
  85  0.900  0.002  0.312-  31 2.24  30 2.36  22 2.38  26 2.38
  86  0.144  0.667  0.311-  33 2.24  27 2.37  19 2.37  28 2.38
  87  0.393  0.343  0.319- 107 2.02  27 2.30  29 2.46  24 2.50
  88  0.650  0.997  0.311-  32 2.29  30 2.33  23 2.35  26 2.41
  89  0.647  0.678  0.310-  34 2.26  30 2.33  20 2.34  25 2.43
  90  0.397  0.996  0.311-  32 2.29  23 2.35  28 2.36  29 2.40
[...]
  93  0.896  0.335  0.314-  35 2.24  26 2.37  21 2.39  25 2.43
  94  0.143  0.331  0.311-  35 2.23  27 2.35  21 2.37  29 2.41
  95  0.149  0.999  0.313-  31 2.23  29 2.37  28 2.38  22 2.41
  96  0.651  0.839  0.392-  34 2.22  32 2.30  30 2.36
  97  0.145  0.830  0.390-  28 2.30  33 2.31  31 2.40
  98  0.407  0.834  0.391-  34 2.26  32 2.28  28 2.36
  99  0.396  0.150  0.394- 107 2.00  32 2.30  29 2.35
 100  0.141  0.167  0.390-  29 2.32  31 2.33  35 2.33
 101  0.909  0.835  0.390-  31 2.31  33 2.33  30 2.35
 102  0.906  0.167  0.390-  35 2.31  26 2.33  31 2.34
 103  0.648  0.152  0.393- 107 2.00  32 2.28  26 2.34
 104  0.910  0.501  0.392-  33 2.32  35 2.33  25 2.36
 105  0.639  0.535  0.393-  34 2.06  25 2.29
 106  0.154  0.501  0.389-  27 2.26  33 2.41  35 2.45
 107  0.521  0.249  0.358- 103 2.00  99 2.00  84 2.01  87 2.02  32 3.03  29 3.07  26 3.10  24 3.17

IMPORTANT INFORMATION: All symmetrisations will be switched off!
NOSYMM: (Re-)initialisation of all symmetry stuff for point group C_1.

 KPOINTS: CeO2-111-3x3-9layers         ! Comment

Automatic generation of k-mesh.
Space group operators:
 irot       det(A)        alpha          n_x          n_y          n_z        tau_x        tau_y        tau_z
    1     1.000000     0.000000     1.000000     0.000000     0.000000     0.000000     0.000000     0.000000

 Subroutine IBZKPT returns following result:

 Found      1 irreducible k-points:

 Following reciprocal coordinates:
            Coordinates               Weight
  0.000000  0.000000  0.000000      1.000000

 Following cartesian coordinates:
            Coordinates               Weight
  0.000000  0.000000  0.000000      1.000000

 I would recommend the setting:
   dimension x,y,z NGX =    72 NGY =   76 NGZ =  161
 SYSTEM =  unknown system
 POSCAR =  CeO2-110-l3-p23:

 Startparameter for this run:
   NWRITE =      2    write-flag & timer
   PREC   = accura    normal or accurate (medium, high low for compatibility)
   ISTART =      1    job   : 0-new  1-cont  2-samecut
   ICHARG =      0    charge: 1-file 2-atom 10-const
   ISPIN  =      2    spin polarized calculation?
   LNONCOLLINEAR =      F non collinear calculations
   LSORBIT =      F    spin-orbit coupling
   INIWAV =      1    electr: 0-lowe 1-rand  2-diag
   LASPH  =      T    aspherical Exc in radial PAW
   METAGGA=      F    non-selfconsistent MetaGGA calc.

 Electronic Relaxation 1
   ENCUT  =  400.0 eV  29.40 Ry    5.42 a.u.  17.91 18.99 40.29*2*pi/ulx,y,z
   ENINI  =  400.0     initial cutoff
   ENAUG  =  605.4 eV  augmentation charge cutoff
   NELM   =    100;   NELMIN=  2; NELMDL=  0     # of ELM steps
   EDIFF  = 0.1E-03   stopping-criterion for ELM
   LREAL  =      T    real-space projection
   NLSPLINE    = F    spline interpolate recip. space projectors
   LCOMPAT=      F    compatible to vasp.4.4
[...]
   -.148E+02 0.136E+01 -.317E+04   0.145E+02 -.106E+01 0.316E+04   0.320E+00 -.327E+00 0.614E+01   -.408E-02 0.229E-01 -.528E-02
   0.152E+02 0.227E+02 -.316E+04   -.153E+02 -.216E+02 0.316E+04   0.758E-01 -.111E+01 0.507E+01   0.257E-02 0.124E-01 -.893E-02
   -.347E+02 0.561E+02 -.316E+04   0.343E+02 -.554E+02 0.316E+04   0.346E+00 -.701E+00 0.601E+01   0.402E-02 -.952E-02 0.460E-02
   0.147E+03 0.211E+03 -.317E+04   -.143E+03 -.212E+03 0.317E+04   -.434E+01 0.440E+00 0.488E+01   0.959E-02 -.240E-01 0.106E-02
   -.309E+02 -.575E+02 -.317E+04   0.302E+02 0.566E+02 0.317E+04   0.779E+00 0.975E+00 0.622E+01   -.580E-02 -.444E-02 -.331E-02
   0.684E+02 -.655E+00 0.160E+04   -.744E+02 0.660E+00 -.161E+04   0.716E+01 -.100E-01 0.508E+01   0.103E-02 -.389E-03 0.536E-03
   0.673E+02 -.136E+00 0.160E+04   -.733E+02 0.141E+00 -.161E+04   0.720E+01 -.893E-02 0.505E+01   0.103E-02 0.107E-03 -.105E-02
   0.683E+02 0.841E+00 0.160E+04   -.744E+02 -.855E+00 -.161E+04   0.717E+01 0.302E-01 0.508E+01   0.102E-02 -.209E-03 0.796E-03
   -.681E+02 -.187E+00 0.160E+04   0.742E+02 0.195E+00 -.161E+04   -.720E+01 -.153E-01 0.505E+01   -.105E-02 0.222E-03 -.157E-02
   -.676E+02 -.612E+00 0.160E+04   0.736E+02 0.618E+00 -.161E+04   -.718E+01 -.127E-01 0.505E+01   -.148E-02 -.348E-03 -.675E-04
   0.677E+02 -.383E-01 0.160E+04   -.738E+02 0.195E-01 -.161E+04   0.721E+01 0.358E-01 0.507E+01   0.145E-02 -.126E-03 -.186E-03
   -.685E+02 0.203E+00 0.160E+04   0.745E+02 -.191E+00 -.161E+04   -.719E+01 -.230E-01 0.509E+01   -.976E-03 -.590E-03 -.204E-03
   -.679E+02 -.169E+00 0.160E+04   0.740E+02 0.171E+00 -.161E+04   -.717E+01 -.494E-02 0.508E+01   -.700E-03 0.727E-03 -.127E-02
   0.688E+02 -.190E+00 0.160E+04   -.748E+02 0.198E+00 -.161E+04   0.715E+01 -.173E-01 0.512E+01   0.677E-03 0.644E-03 -.156E-02
   -.686E+02 -.314E-01 0.160E+04   0.746E+02 0.179E-01 -.161E+04   -.719E+01 0.260E-01 0.510E+01   -.982E-03 -.158E-03 0.188E-03
   -.676E+02 0.789E+00 0.160E+04   0.737E+02 -.804E+00 -.161E+04   -.718E+01 0.298E-01 0.505E+01   -.116E-02 0.100E-03 0.565E-03
   0.678E+02 0.181E+00 0.160E+04   -.738E+02 -.167E+00 -.161E+04   0.720E+01 -.276E-01 0.508E+01   0.107E-02 -.294E-04 0.342E-03
   -.412E+01 -.515E+00 0.964E+03   0.457E+01 0.526E+00 -.963E+03   -.797E+00 0.217E-01 -.902E+00   -.220E-03 -.240E-02 0.140E-02
   0.715E+01 0.286E+01 0.967E+03   -.775E+01 -.290E+01 -.967E+03   0.926E+00 0.266E-01 -.668E+00   0.224E-03 -.453E-02 0.291E-02
   -.413E+01 0.231E-01 0.963E+03   0.456E+01 -.155E-01 -.963E+03   -.774E+00 -.545E-01 -.864E+00   0.140E-02 0.340E-02 0.279E-02
   0.200E+01 -.628E+00 0.966E+03   -.244E+01 0.583E+00 -.965E+03   0.808E+00 0.574E-01 -.996E+00   -.554E-04 0.230E-02 0.228E-02
   -.403E+01 -.145E+01 0.967E+03   0.452E+01 0.141E+01 -.966E+03   -.844E+00 0.442E-01 -.980E+00   0.624E-03 0.236E-02 0.179E-02
   -.488E+01 0.140E+01 0.968E+03   0.543E+01 -.144E+01 -.967E+03   -.910E+00 0.695E-01 -.974E+00   0.777E-03 -.325E-02 0.223E-02
   0.633E+01 -.391E+01 0.967E+03   -.683E+01 0.384E+01 -.966E+03   0.833E+00 0.157E+00 -.877E+00   -.220E-02 0.523E-02 0.211E-02
   0.225E+01 0.575E+00 0.966E+03   -.273E+01 -.506E+00 -.966E+03   0.851E+00 -.997E-01 -.882E+00   -.741E-03 -.311E-02 0.391E-02
   -.841E+01 0.604E+00 0.965E+03   0.920E+01 -.556E+00 -.965E+03   -.114E+01 -.741E-01 -.707E+00   0.276E-02 -.359E-03 0.605E-02
   0.593E+01 -.303E-01 0.967E+03   -.670E+01 0.614E-01 -.966E+03   0.115E+01 -.388E-01 -.739E+00   -.137E-02 0.139E-02 0.407E-02
   -.132E+01 0.152E+00 0.963E+03   0.162E+01 -.159E+00 -.962E+03   -.654E+00 0.154E-01 -.107E+01   0.443E-03 0.118E-02 0.454E-02
   0.394E+01 0.917E+00 0.962E+03   -.429E+01 -.909E+00 -.961E+03   0.682E+00 -.228E-01 -.984E+00   -.173E-02 0.106E-03 0.731E-02
   0.773E+00 -.339E+00 0.326E+03   -.503E+00 0.205E+00 -.326E+03   -.274E+00 0.127E+00 0.241E+00   0.172E-03 -.394E-02 0.131E-01
[...]
   -.498E+02 -.131E+02 -.972E+03   0.519E+02 0.121E+02 0.970E+03   -.213E+01 0.105E+01 0.259E+01   -.286E-02 -.208E-02 0.735E-02
   -.288E+02 0.299E+01 -.961E+03   0.307E+02 -.329E+01 0.958E+03   -.193E+01 0.278E+00 0.322E+01   -.244E-02 0.177E-02 0.847E-03
   -.895E+02 0.897E+01 -.165E+04   0.970E+02 -.705E+01 0.166E+04   -.755E+01 -.192E+01 -.759E+01   0.294E-02 -.106E-02 0.408E-02
   -.867E+02 0.137E+02 -.164E+04   0.910E+02 -.129E+02 0.165E+04   -.427E+01 -.861E+00 -.785E+01   0.475E-02 -.157E-01 -.146E-03
   0.104E+03 0.449E+02 -.163E+04   -.111E+03 -.450E+02 0.164E+04   0.663E+01 0.708E-01 -.693E+01   -.312E-02 -.104E-02 0.159E-02
   0.112E+03 -.672E+02 -.172E+04   -.126E+03 0.642E+02 0.174E+04   0.138E+02 0.292E+01 -.163E+02   -.154E-02 0.990E-02 -.446E-02
   -.884E+02 -.300E+02 -.164E+04   0.932E+02 0.301E+02 0.165E+04   -.482E+01 -.139E+00 -.769E+01   -.759E-02 0.615E-02 -.711E-02
   0.719E+02 0.147E+02 -.163E+04   -.769E+02 -.149E+02 0.164E+04   0.507E+01 0.246E+00 -.717E+01   -.833E-02 -.434E-02 -.106E-02
   0.810E+02 -.207E+02 -.164E+04   -.860E+02 0.204E+02 0.165E+04   0.496E+01 0.276E+00 -.746E+01   0.613E-02 0.645E-02 -.174E-02
   -.105E+03 -.649E+02 -.172E+04   0.119E+03 0.625E+02 0.173E+04   -.140E+02 0.248E+01 -.163E+02   -.578E-02 0.754E-02 -.171E-02
   0.834E+02 0.137E+02 -.164E+04   -.877E+02 -.138E+02 0.165E+04   0.430E+01 0.358E-01 -.707E+01   0.833E-02 -.102E-01 0.423E-02
   0.372E+02 0.161E+03 -.165E+04   -.348E+02 -.172E+03 0.166E+04   -.238E+01 0.108E+02 -.837E+01   0.114E-01 0.762E-02 0.275E-02
   -.142E+03 0.105E+02 -.165E+04   0.145E+03 -.108E+02 0.166E+04   -.294E+01 0.385E+00 -.795E+01   0.996E-02 0.883E-03 0.196E-02
   0.252E+02 -.248E+03 -.236E+04   -.252E+02 0.246E+03 0.236E+04   0.169E-01 0.193E+01 0.683E+00   -.454E-02 -.856E-03 -.614E-02
   0.297E+01 0.491E+00 0.275E+02   -.107E-12 0.114E-12 0.264E-10   -.302E+01 -.458E+00 -.280E+02   0.165E-01 -.479E-02 0.434E+00

 POSITION                                       TOTAL-FORCE (eV/Angst)
      8.46781      1.94101      0.00000         0.020316      0.010114      2.523567
      8.46781      5.82303      0.00000         0.022050     -0.007115      2.563884
      2.97781      1.94101      0.00000        -0.023594     -0.009935      2.536068
      8.46781      9.70504      0.00000         0.027268     -0.003948      2.488249
      2.97781      5.82303      0.00000        -0.005608     -0.003014      2.445183
      2.97781      9.70504      0.00000        -0.012878      0.012324      2.526356
      5.72281      0.00000      1.94101        -0.034429      0.036154     -0.948512
      5.72281      7.76403      1.94101         0.017394     -0.025637     -0.939311
      0.23281      0.00000      1.94101         0.008810      0.029752     -0.982220
      5.72281      3.88202      1.94101         0.037002     -0.006781     -0.839391
      0.23281      3.88202      1.94101        -0.053655     -0.032152     -1.015702
      0.23281      7.76403      1.94101        -0.070063      0.005928     -1.022674
      8.45974      1.94828      3.89102         0.000136     -0.000312      0.002471
      8.45722      9.71575      3.88113        -0.002158     -0.003879      0.001358
      2.98186      1.94823      3.89892        -0.001383      0.000299      0.000311
      8.45663      5.82272      3.90825        -0.001403      0.000623     -0.003785
      2.98037      5.81438      3.86426        -0.001862      0.000654     -0.002207
      2.97813      9.69581      3.89629        -0.004293     -0.004639     -0.002654
      0.20179      7.76488      5.75241         0.005207     -0.002816      0.002666
      5.72539      7.75519      5.78727         0.003711     -0.003365      0.002206
      0.19503      3.87539      5.76437        -0.001630      0.001818     -0.000114
      0.25643      0.00702      5.75972        -0.002713     -0.000584      0.001392
      5.73600      0.01046      5.78510         0.002803     -0.001351      0.005224
      5.72858      3.88735      5.82816        -0.000112      0.000397      0.002018
      8.40900      5.85951      7.92632         0.009868      0.001510     -0.000617
      8.48861      1.94858      7.82507        -0.000749      0.000836      0.000551
      2.89482      5.79749      7.68555         0.005148      0.000613      0.012462
      2.99477      9.67615      7.82116         0.000942     -0.007432      0.007151
      2.99303      1.92153      7.83050        -0.000283      0.002416     -0.003039
      8.52485      9.74088      7.78072        -0.000768      0.000104      0.003539
      0.26416      0.00607      9.50419        -0.009931     -0.001705     -0.009844
      5.75757     11.59567      9.50905        -0.002241     -0.005245     -0.001599
      0.27028      7.77490      9.48848         0.015928     -0.004884      0.013627
      5.88031      7.95187      9.56616         0.006671      0.004890      0.011358
      0.24711      3.86610      9.49618         0.002965      0.002746     -0.003603
      7.09531      3.88202      0.00000         1.131042     -0.005680     -0.453240
      1.60531      0.00000      0.00000         1.148799     -0.004680     -0.469863
      7.09531      7.76403      0.00000         1.135305      0.015245     -0.454541
      9.84031      0.00000      0.00000        -1.147866     -0.007566     -0.466953
      9.84031      3.88202      0.00000        -1.141323     -0.006749     -0.467207
      1.60531      3.88202      0.00000         1.150403      0.016692     -0.462166
      4.35031      7.76403      0.00000        -1.143484     -0.011398     -0.454548
      4.35031      0.00000      0.00000        -1.133782     -0.002793     -0.454308
      7.09531      0.00000      0.00000         1.128635     -0.008520     -0.442335
      4.35031      3.88202      0.00000        -1.140748      0.012200     -0.449180
      9.84031      7.76403      0.00000        -1.139380      0.014830     -0.464427
      1.60531      7.76403      0.00000         1.146317     -0.013504     -0.458403
      4.35031      9.70504      1.94101        -0.350481      0.030019     -0.301867
      7.09531      9.70504      1.94101         0.325586     -0.011527     -0.299457
      4.35031      1.94101      1.94101        -0.342777     -0.043700     -0.275481
      1.60531      1.94101      1.94101         0.369943      0.014752     -0.325099
      9.84031      1.94101      1.94101        -0.360324      0.007778     -0.333348
      9.84031      9.70504      1.94101        -0.354847      0.022389     -0.360772
      7.09531      1.94101      1.94101         0.331236      0.084558     -0.350127
      1.60531      9.70504      1.94101         0.372026     -0.034509     -0.302135
      4.35031      5.82303      1.94101        -0.354917     -0.027204     -0.374886
      1.60531      5.82303      1.94101         0.369693     -0.006473     -0.366722
      9.84031      5.82303      1.94101        -0.350820      0.009775     -0.291364
      7.09531      5.82303      1.94101         0.335148     -0.015312     -0.327922
      7.09863      0.02440      3.86040        -0.002918     -0.010731      0.010054
[...]
      9.83384      3.90419      7.74567         0.008287      0.010057      0.008850
      1.56783      3.85654      7.69488        -0.001555     -0.001663      0.004354
      1.63386     11.62905      7.74022        -0.008600     -0.016145     -0.004183
      7.14409      9.77089      9.69054        -0.004257      0.008872      0.006446
      1.59471      9.66225      9.64428         0.002575     -0.012581      0.001409
      4.47153      9.71815      9.66406         0.007586      0.001590      0.001199
      4.35150      1.75041      9.73722        -0.002831      0.007755     -0.003235
      1.54730      1.94116      9.64429        -0.016030     -0.001105     -0.011666
      9.98128      9.72377      9.62337        -0.007475      0.003408     -0.004953
      9.94872      1.94436      9.64269         0.004362      0.000923      0.003542
      7.11792      1.77144      9.71779        -0.012906      0.005365      0.005027
      9.99288      5.83069      9.67277         0.023597     -0.016468      0.004174
      7.01269      6.23371      9.70100         0.025258      0.011391      0.008682
      1.69604      5.83587      9.60392         0.020475      0.002036      0.006405
      5.72195      2.90141      8.83649         0.005009      0.012269      0.014097
    total drift:                               -0.034370      0.028421     -0.078878

  FREE ENERGIE OF THE ION-ELECTRON SYSTEM (eV)
  free  energy   TOTEN  =      -871.56724249 eV

  energy  without entropy=     -871.56724249  energy(sigma->0) =     -871.56724249

 stress matrix after NEB project (eV)
    -69.79051      2.24112      0.80847
      2.24112   -116.13250     -0.15841
      0.80847     -0.15841    -65.82948
  FORCES: max atom, RMS     0.041713    0.010459
  FORCE total and by dimension    0.108184    0.035843
  Stress total and by dimension  150.673142  116.132498

 reached required accuracy - stopping structural energy minimisation
 writing wavefunctions

 total charge

[...]

 magnetization (x)

# of ion     s       p       d       f       tot
  1        0.000  -0.000  -0.000   0.000   0.000
  2       -0.000  -0.000  -0.000  -0.000  -0.000
  3        0.000  -0.000   0.000   0.000   0.000
  4        0.000  -0.000   0.000   0.000   0.000
  5       -0.000  -0.000   0.000  -0.000  -0.000
  6        0.000  -0.000   0.000  -0.000  -0.000
  7       -0.000  -0.000  -0.000  -0.000  -0.000
  8       -0.000  -0.000  -0.000   0.000  -0.000
  9        0.000  -0.000  -0.000  -0.000  -0.000
 10       -0.000  -0.000   0.000   0.000  -0.000
 11       -0.000  -0.000  -0.000   0.000  -0.000
 12       -0.000  -0.000  -0.000   0.000  -0.000
 13        0.000  -0.000   0.000   0.000   0.000
 14        0.000  -0.000  -0.000  -0.000   0.000
 15        0.000  -0.000   0.000  -0.000  -0.000
 16        0.000   0.000   0.000   0.000   0.000
 17        0.000  -0.000   0.000   0.000   0.000
 18        0.000  -0.000   0.000  -0.000  -0.000
 19       -0.000   0.000   0.000   0.000   0.000
 20       -0.000   0.000   0.000   0.000   0.000
 21       -0.000   0.000  -0.000   0.000   0.000
 22       -0.000   0.000   0.000   0.000   0.000
 23       -0.000   0.000  -0.000   0.000  -0.000
 24        0.000   0.000   0.000   0.000   0.000
 25        0.000   0.000   0.000   0.000   0.000
 26        0.000   0.000  -0.000  -0.000  -0.000
 27        0.000   0.000  -0.000  -0.000   0.000
 28       -0.000   0.000   0.000  -0.000  -0.000
 29       -0.000   0.000  -0.000   0.000   0.000
 30       -0.000   0.000  -0.000   0.000   0.000
 31        0.000  -0.000   0.000  -0.000  -0.000
 32       -0.000  -0.000   0.000   0.000  -0.000
 33        0.000   0.000  -0.000   0.000   0.000
 34       -0.000  -0.000  -0.000   0.000  -0.000
 35       -0.000   0.000  -0.000   0.000   0.000
 36       -0.000   0.000   0.000   0.000   0.000
 37        0.000  -0.000   0.000   0.000  -0.000
 38        0.000   0.000   0.000   0.000   0.000
 39        0.000  -0.000   0.000   0.000  -0.000
 40        0.000   0.000   0.000   0.000   0.000
 41        0.000  -0.000   0.000   0.000  -0.000
 42       -0.000   0.000   0.000   0.000   0.000
 43        0.000  -0.000   0.000   0.000  -0.000
 44        0.000  -0.000   0.000   0.000   0.000
 45        0.000  -0.000   0.000   0.000  -0.000
 46       -0.000   0.000   0.000   0.000   0.000
 47        0.000   0.000   0.000   0.000   0.000
 48       -0.000   0.000   0.000   0.000   0.000
 49       -0.000  -0.000   0.000   0.000  -0.000
 50       -0.000  -0.000   0.000   0.000  -0.000
 51       -0.000   0.000   0.000   0.000   0.000
 52       -0.000  -0.000   0.000   0.000  -0.000
 53       -0.000  -0.000   0.000   0.000  -0.000
 54       -0.000  -0.000   0.000   0.000  -0.000
 55       -0.000   0.000   0.000   0.000   0.000
 56       -0.000   0.000   0.000   0.000  -0.000
 57        0.000   0.000   0.000   0.000   0.000
 58       -0.000   0.000   0.000   0.000  -0.000
 59       -0.000   0.000   0.000   0.000  -0.000
 60        0.000  -0.000   0.000   0.000  -0.000
[...]
 93       -0.000  -0.000   0.000   0.000  -0.000
 94        0.000   0.000   0.000   0.000   0.000
 95       -0.000  -0.000   0.000   0.000  -0.000
 96       -0.000   0.000   0.000   0.000  -0.000
 97       -0.000  -0.000   0.000   0.000  -0.000
 98        0.000  -0.000   0.000   0.000  -0.000
 99       -0.000  -0.000   0.000   0.000  -0.000
100        0.000  -0.000   0.000   0.000  -0.000
101       -0.000   0.000   0.000   0.000   0.000
102        0.000  -0.000   0.000   0.000  -0.000
103       -0.000   0.000   0.000   0.000   0.000
104        0.000  -0.000   0.000   0.000   0.000
105       -0.000  -0.000   0.000   0.000  -0.000
106        0.000   0.000   0.000   0.000   0.000
107       -0.000  -0.000  -0.000   0.000  -0.000
tot       -0.000  -0.000  -0.000   0.000  -0.000