 vasp.5.3.5 31Mar14 (build May 27 2014 14:39:49) gamma-only

 executed on           LinuxIFORT date 2020.11.24  14:13:32

 INCAR:
 POTCAR:    PAW_PBE Ce 23Dec2003
 POTCAR:    PAW_PBE O 08Apr2002
 POTCAR:    PAW_PBE Pt 04Feb2005
 POTCAR:    PAW_PBE O 08Apr2002
 POTCAR:    PAW_PBE C 08Apr2002
 POTCAR:    PAW_PBE Ce 23Dec2003
   VRHFIN =Ce : [core= Kr 4d10]

   TITEL  = PAW_PBE Ce 23Dec2003
   POMASS =  140.115; ZVAL   =   12.000    mass and valenz
   ENMAX  =  273.042; ENMIN  =  204.781 eV

 POTCAR:    PAW_PBE O 08Apr2002
   VRHFIN =O: s2p4

   TITEL  = PAW_PBE O 08Apr2002
   POMASS =   16.000; ZVAL   =    6.000    mass and valenz
   ENMAX  =  400.000; ENMIN  =  300.000 eV

 POTCAR:    PAW_PBE Pt 04Feb2005
   VRHFIN =Pt: s1d9

   TITEL  = PAW_PBE Pt 04Feb2005
   POMASS =  195.080; ZVAL   =   10.000    mass and valenz
   ENMAX  =  230.283; ENMIN  =  172.712 eV

 POTCAR:    PAW_PBE O 08Apr2002
   VRHFIN =O: s2p4

[...]

 POTCAR:    PAW_PBE C 08Apr2002
   VRHFIN =C: s2p2

   TITEL  = PAW_PBE C 08Apr2002
   POMASS =   12.011; ZVAL   =    4.000    mass and valenz
   ENMAX  =  400.000; ENMIN  =  300.000 eV

 Optimization of the real space projectors (new method)

 maximal supplied QI-value         = 13.98
 optimisation between [QCUT,QGAM] = [ 10.21, 20.42] = [ 29.18,116.73] Ry
 Optimized for a Real-space Cutoff    1.65 Angstroem

   l    n(q)    QCUT    max X(q) W(low)/X(q) W(high)/X(q)  e(spline)
   0     10    10.208     8.553    0.18E-04    0.75E-05    0.12E-06
   0     10    10.208     8.106    0.26E-04    0.16E-04    0.24E-06
   1     10    10.208     4.160    0.93E-05    0.96E-06    0.75E-07
   1     10    10.208     3.597    0.23E-04    0.26E-04    0.15E-06
   2      9    10.208     8.183    0.11E-03    0.28E-03    0.51E-06
   2      9    10.208     6.077    0.74E-04    0.19E-03    0.37E-06
   3      9    10.208   116.013    0.19E-03    0.98E-05    0.18E-06
   3      9    10.208   108.937    0.19E-03    0.10E-04    0.18E-06
 Optimization of the real space projectors (new method)

[...]

   l    n(q)    QCUT    max X(q) W(low)/X(q) W(high)/X(q)  e(spline)
   0      9    10.150    20.381    0.17E-03    0.18E-03    0.41E-06
   0      9    10.150    15.268    0.18E-03    0.20E-03    0.43E-06
   1      9    10.150     5.964    0.16E-03    0.20E-03    0.36E-06
   1      9    10.150     5.382    0.13E-03    0.16E-03    0.33E-06
 Optimization of the real space projectors (new method)

 maximal supplied QI-value         = 25.13
 optimisation between [QCUT,QGAM] = [ 10.05, 20.36] = [ 28.30,116.06] Ry
 Optimized for a Real-space Cutoff    1.51 Angstroem

   l    n(q)    QCUT    max X(q) W(low)/X(q) W(high)/X(q)  e(spline)
   0      9    10.053   115.676    0.19E-03    0.21E-03    0.38E-06
   0      9    10.053    87.132    0.19E-03    0.21E-03    0.38E-06
   1      9    10.053     4.429    0.87E-04    0.11E-03    0.39E-06
   1      9    10.053     2.733    0.59E-04    0.62E-04    0.43E-06
  PAW_PBE Ce 23Dec2003                  :
  PAW_PBE O 08Apr2002                   :
  PAW_PBE Pt 04Feb2005                  :
  PAW_PBE O 08Apr2002                   :
  PAW_PBE C 08Apr2002                   :

 POSCAR: CeO2-110-l3-p23:
  positions in direct lattice
  velocities in cartesian coordinates
 exchange correlation table for  LEXCH =        8
   RHO(1)=    0.500       N(1)  =     2000
   RHO(2)=  100.500       N(2)  =     4000

 VTST: version 3.1, (03/28/14)

 CHAIN: initializing optimizer

 OPT: Using VASP Conjugate-Gradient optimizer
 CHAIN: Read ICHAIN            0

 POSCAR: CeO2-110-l3-p23:
  positions in direct lattice
  velocities in cartesian coordinates

 ion  position               nearest neighbor table
   1  0.771  0.167  0.000-  37 2.38  41 2.38  40 2.38  45 2.38  53 2.38  55 2.38
   2  0.771  0.500  0.000-  37 2.38  39 2.38  41 2.38  47 2.38  59 2.38  60 2.38
   3  0.271  0.167  0.000-  42 2.38  46 2.38  44 2.38  38 2.38  51 2.38  52 2.38
   4  0.771  0.833  0.000-  39 2.38  47 2.38  45 2.38  40 2.38  50 2.38  54 2.38
   5  0.271  0.500  0.000-  42 2.38  43 2.38  46 2.38  48 2.38  57 2.38  58 2.38
   6  0.271  0.833  0.000-  43 2.38  48 2.38  44 2.38  38 2.38  49 2.38  56 2.38
   7  0.521  0.000  0.079-  61 2.37  50 2.38  51 2.38  55 2.38  49 2.38  45 2.38  44 2.38  67 2.38

   8  0.521  0.667  0.079-  62 2.37  63 2.37  49 2.38  50 2.38  57 2.38  60 2.38  39 2.38  43 2.38

[...]

  28  0.271  0.828  0.313-  91 2.33  96 2.33  77 2.37  93 2.37  75 2.37  87 2.38  99 2.55  98 2.56
                           108 3.04
  29  0.271  0.165  0.319- 100 2.28 101 2.28  79 2.42  83 2.42  88 2.44  95 2.44  96 2.47  91 2.47

[...]

 109  0.388  0.531  0.400- 108 2.06  34 2.29  27 2.52
 110  0.439  0.526  0.522- 112 1.18
 111  0.281  0.651  0.548- 112 1.18
 112  0.359  0.589  0.534- 111 1.18 110 1.18

IMPORTANT INFORMATION: All symmetrisations will be switched off!
NOSYMM: (Re-)initialisation of all symmetry stuff for point group C_1.

 KPOINTS: CeO2-111-3x3-9layers         ! Comment

Automatic generation of k-mesh.
Space group operators:
 irot       det(A)        alpha          n_x          n_y          n_z        tau_x        tau_y        tau_z
    1     1.000000     0.000000     1.000000     0.000000     0.000000     0.000000     0.000000     0.000000

 Subroutine IBZKPT returns following result:

 Found      1 irreducible k-points:

 Following reciprocal coordinates:
            Coordinates               Weight
  0.000000  0.000000  0.000000      1.000000

 Following cartesian coordinates:
            Coordinates               Weight
  0.000000  0.000000  0.000000      1.000000

 I would recommend the setting:
   dimension x,y,z NGX =    72 NGY =   76 NGZ =  161
 SYSTEM =  unknown system
 POSCAR =  CeO2-110-l3-p23:

 Startparameter for this run:
   NWRITE =      2    write-flag & timer
   PREC   = accura    normal or accurate (medium, high low for compatibility)
   ISTART =      1    job   : 0-new  1-cont  2-samecut
   ICHARG =      0    charge: 1-file 2-atom 10-const
   ISPIN  =      2    spin polarized calculation?
   LNONCOLLINEAR =      F non collinear calculations
   LSORBIT =      F    spin-orbit coupling
   INIWAV =      1    electr: 0-lowe 1-rand  2-diag
   LASPH  =      T    aspherical Exc in radial PAW
   METAGGA=      F    non-selfconsistent MetaGGA calc.

 Electronic Relaxation 1
   ENCUT  =  400.0 eV  29.40 Ry    5.42 a.u.  17.91 18.99 40.29*2*pi/ulx,y,z
   ENINI  =  400.0     initial cutoff
   ENAUG  =  644.9 eV  augmentation charge cutoff
   NELM   =    100;   NELMIN=  2; NELMDL=  0     # of ELM steps
   EDIFF  = 0.1E-03   stopping-criterion for ELM
   LREAL  =      T    real-space projection
   NLSPLINE    = F    spline interpolate recip. space projectors
   LCOMPAT=      F    compatible to vasp.4.4
   GGA_COMPAT  = T    GGA compatible to vasp.4.4-vasp.4.6
   LMAXPAW     = -100 max onsite density
   LMAXMIX     =    6 max onsite mixed and CHGCAR
   VOSKOWN=      0    Vosko Wilk Nusair interpolation
   ROPT   =   -0.00025  -0.00025  -0.00025  -0.00025
   ROPT   =   -0.00025
 Ionic relaxation
   EDIFFG = -.5E-01   stopping-criterion for IOM
   NSW    =     40    number of steps for IOM
   NBLOCK =      1;   KBLOCK =     40    inner block; outer block
   IBRION =      2    ionic relax: 0-MD 1-quasi-New 2-CG
   NFREE  =      1    steps in history (QN), initial steepest desc. (CG)
   ISIF   =      2    stress and relaxation
   IWAVPR =     11    prediction:  0-non 1-charg 2-wave 3-comb
   ISYM   =      0    0-nonsym 1-usesym 2-fastsym
   LCORR  =      T    Harris-Foulkes like correction to forces

   POTIM  = 0.1000    time-step for ionic-motion
   TEIN   =    0.0    initial temperature
   TEBEG  =    0.0;   TEEND  =   0.0 temperature during run
   SMASS  =  -3.00    Nose mass-parameter (am)
   estimated Nose-frequenzy (Omega)   =  0.10E-29 period in steps =****** mass=  -0.276E-26a.u.
   SCALEE = 1.0000    scale energy and forces
   NPACO  =    256;   APACO  = 16.0  distance and # of slots for P.C.
   PSTRESS=    0.0 pullay stress

  Mass of Ions in am
   POMASS = 140.12 16.00195.08 16.00 12.01
  Ionic Valenz
   ZVAL   =  12.00  6.00 10.00  6.00  4.00
  Atomic Wigner-Seitz radii
  virtual crystal weights
   VCA    =   1.00  1.00  1.00  1.00  1.00
   NELECT =     890.0000    total number of electrons
   NUPDOWN=      -1.0000    fix difference up-down

 DOS related values:
   EMIN   =  10.00;   EMAX   =-10.00  energy-range for DOS
   EFERMI =   0.00
   ISMEAR =     0;   SIGMA  =   0.05  broadening in eV -4-tet -1-fermi 0-gaus

 Electronic relaxation 2 (details)
   IALGO  =     68    algorithm
   LDIAG  =      T    sub-space diagonalisation (order eigenvalues)
   LSUBROT=      F    optimize rotation matrix (better conditioning)
   TURBO    =      0    0=normal 1=particle mesh
   IRESTART =      0    0=no restart 2=restart with 2 vectors
   NREBOOT  =      0    no. of reboots
   NMIN     =      0    reboot dimension
   EREF     =   0.00    reference energy to select bands
   IMIX   =      4    mixing-type and parameters
     AMIX     =   0.20;   BMIX     =  0.00
     AMIX_MAG =   0.80;   BMIX_MAG =  0.00
     AMIN     =   0.10
     WC   =   100.;   INIMIX=   1;  MIXPRE=   1;  MAXMIX= -45

 Intra band minimization:
   WEIMIN = 0.0010     energy-eigenvalue tresh-hold
   EBREAK =  0.42E-07  absolut break condition
   DEPER  =   0.30     relativ break condition

   TIME   =   0.40     timestep for ELM

  volume/ion in A,a.u.               =      28.21       190.35
  Fermi-wavevector in a.u.,A,eV,Ry     =   1.073205  2.028063 15.670766  1.151769
  Thomas-Fermi vector in A             =   2.208998

 Write flags
   LWAVE  =      T    write WAVECAR
   LCHARG =      T    write CHGCAR
   LVTOT  =      F    write LOCPOT, total local potential
   LVHAR  =      F    write LOCPOT, Hartree potential only
   LELF   =      F    write electronic localiz. function (ELF)
   LORBIT =     11    0 simple, 1 ext, 2 COOP (PROOUT)

 Dipole corrections
   LMONO  =      F    monopole corrections only (constant potential shift)
   LDIPOL =      T    correct potential (dipole corrections)
   IDIPOL =      3    1-x, 2-y, 3-z, 4-all directions
   EPSILON=  1.0000000 bulk dielectric constant

 LDA+U is selected, type is set to LDAUTYPE =  2
   angular momentum for each species LDAUL =     3   -1   -1   -1   -1
   U (eV)           for each species LDAUU =   4.5  0.0  0.0  0.0  0.0
   J (eV)           for each species LDAUJ =   0.0  0.0  0.0  0.0  0.0
 Exchange correlation treatment:
   GGA     =    --    GGA type
   VOSKOWN=      0    Vosko Wilk Nusair interpolation
   LHFCALC =     F    Hartree Fock is set to
   LHFONE  =     F    Hartree Fock one center treatment
   AEXX    =    0.0000 exact exchange contribution

 Linear response parameters
   LEPSILON=     F    determine dielectric tensor
   LRPA    =     F    only Hartree local field effects (RPA)
   LNABLA  =     F    use nabla operator in PAW spheres
   LVEL    =     F    velocity operator in full k-point grid
   LINTERFAST=   F  fast interpolation
   KINTER  =     0    interpolate to denser k-point grid
   CSHIFT  =0.1000    complex shift for real part using Kramers Kronig
   OMEGAMAX=  -1.0    maximum frequency
[...]
   -.199E+02 0.540E+02 -.304E+04   0.206E+02 -.544E+02 0.304E+04   -.690E+00 0.449E+00 0.426E+01   0.251E-02 -.229E-02 -.299E-02
   0.681E+02 0.903E+00 0.161E+04   -.741E+02 -.909E+00 -.161E+04   0.717E+01 0.118E-01 0.508E+01   -.216E-03 0.305E-03 -.251E-03
   0.680E+02 -.162E+01 0.161E+04   -.741E+02 0.164E+01 -.161E+04   0.719E+01 -.464E-01 0.507E+01   0.208E-03 0.476E-03 -.124E-03
   0.678E+02 0.452E+00 0.161E+04   -.738E+02 -.462E+00 -.162E+04   0.718E+01 0.186E-01 0.507E+01   0.411E-03 0.632E-03 -.218E-03
   -.683E+02 -.135E+01 0.161E+04   0.743E+02 0.137E+01 -.162E+04   -.718E+01 -.293E-01 0.508E+01   -.172E-03 -.900E-03 -.218E-03
   -.683E+02 0.890E+00 0.161E+04   0.743E+02 -.897E+00 -.161E+04   -.717E+01 0.116E-01 0.508E+01   0.220E-03 0.295E-03 -.290E-03
   0.681E+02 0.121E+01 0.161E+04   -.741E+02 -.123E+01 -.161E+04   0.719E+01 0.317E-01 0.507E+01   0.408E-03 -.239E-03 -.190E-03
   -.682E+02 0.406E+00 0.161E+04   0.742E+02 -.412E+00 -.162E+04   -.720E+01 0.132E-01 0.508E+01   -.651E-04 -.189E-03 -.138E-03
   -.678E+02 -.162E+01 0.161E+04   0.739E+02 0.164E+01 -.161E+04   -.719E+01 -.463E-01 0.506E+01   -.189E-03 0.439E-03 -.825E-04
   0.681E+02 -.136E+01 0.161E+04   -.742E+02 0.137E+01 -.162E+04   0.718E+01 -.293E-01 0.507E+01   0.158E-03 -.937E-03 -.149E-03
   -.679E+02 0.122E+01 0.161E+04   0.739E+02 -.124E+01 -.161E+04   -.719E+01 0.319E-01 0.507E+01   -.406E-03 -.253E-03 -.189E-03
   -.680E+02 0.460E+00 0.161E+04   0.740E+02 -.470E+00 -.162E+04   -.718E+01 0.188E-01 0.507E+01   -.407E-03 0.608E-03 -.281E-03
   0.684E+02 0.411E+00 0.161E+04   -.744E+02 -.417E+00 -.162E+04   0.720E+01 0.133E-01 0.508E+01   0.693E-04 -.230E-03 -.151E-03
   -.578E+01 -.327E+01 0.997E+03   0.643E+01 0.325E+01 -.997E+03   -.993E+00 0.527E-01 -.717E+00   -.732E-04 0.539E-04 0.344E-03
   0.563E+01 -.122E+01 0.997E+03   -.624E+01 0.116E+01 -.997E+03   0.948E+00 0.742E-01 -.806E+00   0.402E-03 0.231E-05 -.246E-03
   -.225E+01 -.143E+01 0.990E+03   0.265E+01 0.140E+01 -.989E+03   -.788E+00 0.447E-01 -.999E+00   -.250E-03 0.403E-04 -.211E-03
   0.247E+01 -.129E+01 0.990E+03   -.287E+01 0.127E+01 -.989E+03   0.785E+00 0.325E-01 -.999E+00   0.302E-03 0.357E-04 -.356E-03
   -.527E+01 -.146E+01 0.992E+03   0.575E+01 0.140E+01 -.992E+03   -.829E+00 0.863E-01 -.995E+00   0.335E-03 -.530E-04 0.219E-03
   -.593E+01 -.114E+01 0.997E+03   0.655E+01 0.108E+01 -.997E+03   -.950E+00 0.766E-01 -.798E+00   -.442E-03 0.104E-04 -.421E-03
   0.503E+01 -.145E+01 0.992E+03   -.552E+01 0.139E+01 -.992E+03   0.831E+00 0.863E-01 -.100E+01   -.378E-03 -.258E-04 0.417E-03
   0.605E+01 -.324E+01 0.997E+03   -.670E+01 0.322E+01 -.996E+03   0.992E+00 0.583E-01 -.727E+00   0.143E-03 0.634E-04 0.318E-03
   -.528E+01 0.468E+01 0.995E+03   0.586E+01 -.458E+01 -.994E+03   -.940E+00 -.180E+00 -.806E+00   -.187E-03 -.278E-04 -.461E-04
   0.554E+01 0.456E+01 0.994E+03   -.612E+01 -.446E+01 -.994E+03   0.941E+00 -.179E+00 -.803E+00   0.243E-03 -.110E-04 -.107E-03
   -.488E+01 0.258E+01 0.994E+03   0.539E+01 -.251E+01 -.994E+03   -.853E+00 -.857E-01 -.913E+00   0.226E-03 0.640E-04 -.207E-03
   0.461E+01 0.265E+01 0.994E+03   -.512E+01 -.258E+01 -.994E+03   0.849E+00 -.836E-01 -.922E+00   -.230E-03 0.272E-04 0.148E-04
[...]
   -.471E+02 -.224E+03 -.155E+04   0.511E+02 0.239E+03 0.156E+04   -.404E+01 -.144E+02 -.446E+01   0.370E-03 0.625E-03 -.680E-03
   0.745E+02 -.210E+02 -.158E+04   -.790E+02 0.230E+02 0.159E+04   0.450E+01 -.194E+01 -.766E+01   -.131E-02 -.364E-02 0.390E-03
   -.682E+02 -.250E+02 -.158E+04   0.727E+02 0.270E+02 0.159E+04   -.451E+01 -.192E+01 -.761E+01   0.476E-03 -.256E-02 0.206E-03
   0.959E+02 -.267E+02 -.157E+04   -.101E+03 0.268E+02 0.158E+04   0.469E+01 -.599E-01 -.653E+01   0.292E-03 0.514E-03 0.195E-02
   0.846E+02 -.280E+02 -.160E+04   -.907E+02 0.300E+02 0.161E+04   0.612E+01 -.200E+01 -.720E+01   -.217E-02 -.241E-02 0.719E-03
   -.923E+02 -.252E+02 -.160E+04   0.985E+02 0.273E+02 0.160E+04   -.624E+01 -.209E+01 -.714E+01   0.270E-02 -.322E-02 -.229E-03
   0.889E+02 0.565E+02 -.156E+04   -.932E+02 -.589E+02 0.157E+04   0.426E+01 0.231E+01 -.680E+01   -.177E-02 0.274E-02 0.976E-03
   -.112E+03 0.593E+02 -.154E+04   0.116E+03 -.617E+02 0.155E+04   -.437E+01 0.243E+01 -.683E+01   0.375E-02 0.261E-02 -.446E-03
   0.750E+02 0.208E+03 -.155E+04   -.791E+02 -.223E+03 0.156E+04   0.416E+01 0.145E+02 -.445E+01   -.497E-03 0.109E-02 0.155E-02
   0.392E+02 -.406E+02 -.262E+04   -.391E+02 0.403E+02 0.262E+04   -.102E+00 0.256E+00 -.147E+00   -.970E-03 0.113E-02 0.671E-03
   -.455E+02 0.208E+03 -.149E+04   0.499E+02 -.223E+03 0.150E+04   -.439E+01 0.145E+02 -.438E+01   -.171E-02 0.170E-02 -.931E-03
   -.226E+03 0.202E+03 -.127E+04   0.272E+03 -.241E+03 0.125E+04   -.464E+02 0.392E+02 0.164E+02   -.648E-01 0.453E-01 0.202E-01
   0.198E+03 -.166E+03 -.125E+04   -.244E+03 0.205E+03 0.127E+04   0.466E+02 -.397E+02 -.181E+02   0.449E-01 -.276E-01 -.191E-01
   -.867E+01 0.156E+02 -.836E+03   0.850E+01 -.155E+02 0.836E+03   0.191E+00 -.395E-01 0.291E+00   0.199E-02 -.992E-03 -.162E-02
   0.321E+00 0.568E+01 0.104E+02   -.199E-12 -.114E-12 0.134E-10   -.284E+00 -.571E+01 -.105E+02   -.323E-01 0.210E-01 0.334E-01

 POSITION                                       TOTAL-FORCE (eV/Angst)
      8.46781      1.94101      0.00000        -0.000740      0.006222      2.538714
      8.46781      5.82303      0.00000         0.000220     -0.011259      2.521852
      2.97781      1.94101      0.00000        -0.000047      0.004185      2.567609
      8.46781      9.70504      0.00000        -0.000737      0.005247      2.480015
      2.97781      5.82303      0.00000         0.000342     -0.016995      2.490426
      2.97781      9.70504      0.00000        -0.000324      0.013215      2.460694
      5.72281      0.00000      1.94101         0.011200      0.121818     -0.975479
      5.72281      7.76403      1.94101         0.025195     -0.049021     -1.011444
      0.23281      0.00000      1.94101        -0.008506      0.119572     -0.977859
      5.72281      3.88202      1.94101         0.018639     -0.073320     -0.864625
      0.23281      3.88202      1.94101        -0.015418     -0.073283     -0.869033
      0.23281      7.76403      1.94101        -0.021465     -0.047672     -0.996988
      8.46793      1.95237      3.89212         0.000840      0.000526     -0.000371
      8.46864      9.71945      3.87657         0.000660      0.000246      0.000711
      2.97830      1.94683      3.90856        -0.000758     -0.000271     -0.000065
      8.46828      5.80615      3.88937         0.000812     -0.000452     -0.001210
      2.97772      5.80747      3.88298        -0.000540     -0.000127      0.000030
      2.97786      9.70469      3.87434        -0.000730     -0.000251      0.000853
      0.21238      7.75985      5.75225         0.000160      0.000003     -0.000228
      5.74401      7.76191      5.74797         0.000359      0.000314     -0.000457
      0.23219      3.87428      5.82460         0.000361     -0.000156     -0.001520
      0.23665      0.00876      5.77479        -0.000261      0.000276     -0.000293
      5.71939      0.00890      5.77481         0.000257     -0.000751     -0.000258
      5.72454      3.87363      5.82584        -0.000565      0.000058      0.000503
      8.46786      5.80737      7.80298        -0.001319     -0.000140     -0.001217
      8.46927      1.95656      7.83016        -0.001744     -0.000303     -0.000369
      2.98062      5.84574      7.73818         0.000720     -0.000190     -0.000544
      2.97722      9.64068      7.72119         0.000100     -0.001872     -0.001745
      2.97890      1.92673      7.88970         0.001378      0.001431     -0.001445
      8.46738      9.75506      7.75837        -0.000480      0.000375     -0.002681
      0.19044      0.06362      9.53172         0.000526      0.001144     -0.004092
      5.76622      0.06353      9.53252         0.001048      0.002469      0.000486
      0.08065      7.78133      9.51665         0.000431     -0.001246     -0.002790
      5.86677      7.77726      9.50277        -0.000323     -0.001390      0.000635
      0.20360      3.85876      9.64675         0.000768      0.000071     -0.001346
      5.75266      3.85679      9.65138         0.000430     -0.002176     -0.000269
      7.09531      3.88202      0.00000         1.137914      0.005474     -0.457624
      1.60531      0.00000      0.00000         1.143887     -0.022374     -0.462047
      7.09531      7.76403      0.00000         1.138684      0.009473     -0.459828
      9.84031      0.00000      0.00000        -1.140646     -0.013886     -0.457478
      9.84031      3.88202      0.00000        -1.139145      0.005371     -0.457211
      1.60531      3.88202      0.00000         1.142351      0.014945     -0.461004
      4.35031      7.76403      0.00000        -1.146150      0.006742     -0.456611
      4.35031      0.00000      0.00000        -1.145123     -0.022353     -0.462600
      7.09531      0.00000      0.00000         1.140873     -0.013874     -0.458769
      4.35031      3.88202      0.00000        -1.143790      0.014996     -0.461211
      9.84031      7.76403      0.00000        -1.140417      0.009605     -0.459560
      1.60531      7.76403      0.00000         1.145367      0.006740     -0.456871
      4.35031      9.70504      1.94101        -0.345404      0.032558     -0.314934
      7.09531      9.70504      1.94101         0.338897      0.015208     -0.350237
      4.35031      1.94101      1.94101        -0.389261      0.016178     -0.310571
      1.60531      1.94101      1.94101         0.389256      0.009262     -0.306315
      9.84031      1.94101      1.94101        -0.345765      0.030098     -0.362114
      9.84031      9.70504      1.94101        -0.336994      0.015467     -0.353808
      7.09531      1.94101      1.94101         0.347053      0.029950     -0.364046
      1.60531      9.70504      1.94101         0.345239      0.034645     -0.318426
      4.35031      5.82303      1.94101        -0.356678     -0.076193     -0.311919
      1.60531      5.82303      1.94101         0.356197     -0.074447     -0.311000
      9.84031      5.82303      1.94101        -0.346587     -0.018126     -0.344117
      7.09531      5.82303      1.94101         0.346369     -0.017807     -0.344474
[...]
      1.66843      9.37558      9.90219        -0.000087      0.005233      0.003147
      4.28196      9.36769      9.89935         0.000269      0.005592      0.000602
      4.39311      1.81162      9.67055        -0.000005      0.004534     -0.001673
      1.56004      1.81540      9.67094        -0.000626      0.001503      0.002456
      9.93298      9.79630      9.60922        -0.000195      0.000418      0.000590
      9.87966      1.84106      9.70769         0.004949      0.002211      0.000676
      7.05469      1.83509      9.71387        -0.001933      0.005542     -0.000067
      9.89427      5.89502      9.62497         0.001198     -0.003888      0.001218
      7.03083      5.90078      9.62280        -0.004399     -0.004874     -0.000572
      1.66105      6.19773      9.95938        -0.001744      0.005345      0.005526
      2.97320      7.78006     10.12813        -0.000399      0.002598      0.000860
      4.26032      6.18447      9.88142         0.001104      0.003435      0.006717
      4.81636      6.12670     12.88972         0.010692      0.022873      0.021089
      3.08488      7.58606     13.53310        -0.030710     -0.018649      0.029036
      3.94148      6.85875     13.18667         0.018018     -0.023156      0.009912
    total drift:                                0.004587     -0.010678     -0.104308

  FREE ENERGIE OF THE ION-ELECTRON SYSTEM (eV)
  free  energy   TOTEN  =      -913.57083722 eV

  energy  without entropy=     -913.57083722  energy(sigma->0) =     -913.57083722

 d Force = 0.1560531E-03[ 0.449E-04, 0.267E-03]  d Energy = 0.1936128E-03-0.376E-04
 d Force = 0.1256912E+01[ 0.126E+01, 0.126E+01]  d Ewald  = 0.1256912E+01 0.220E-06

 stress matrix after NEB project (eV)
    -65.79908     -0.27465     -0.11701
     -0.27445   -122.12865      0.00281
     -0.11690      0.00305    -67.47708
  FORCES: max atom, RMS     0.046195    0.006882
  FORCE total and by dimension    0.072835    0.030710
  Stress total and by dimension  154.266853  122.128652
 Steepest descent step on ions:
 trial-energy change:   -0.000194  1 .order   -0.000156   -0.000267   -0.000045
  (g-gl).g = 0.267E-03      g.g   = 0.267E-03  gl.gl    = 0.000E+00
 g(Force)  = 0.267E-03   g(Stress)= 0.000E+00 ortho     = 0.000E+00
 gamma     =   0.00000
 trial     =   1.00000
 opt step  =   1.20197  (harmonic =   1.20197) maximal distance =0.00118223
 next E    =  -913.570804   (d E  =  -0.00016)

 reached required accuracy - stopping structural energy minimisation
 writing wavefunctions

 total charge

[...]

 magnetization (x)

# of ion     s       p       d       f       tot
  1       -0.000  -0.000  -0.000   0.000  -0.000
  2        0.000  -0.000   0.000   0.000   0.000
  3        0.000   0.000   0.000   0.000   0.000
  4       -0.000   0.000   0.000   0.000   0.000
  5        0.000  -0.000   0.000   0.000   0.000
  6       -0.000  -0.000   0.000   0.000  -0.000
  7       -0.000  -0.000   0.000   0.000   0.000
  8        0.000  -0.000  -0.000   0.000   0.000
  9       -0.000  -0.000  -0.000  -0.000  -0.000
 10        0.000  -0.000   0.000   0.000   0.000
 11       -0.000  -0.000  -0.000  -0.000  -0.000
 12       -0.000  -0.000   0.000   0.000   0.000
 13       -0.000  -0.000  -0.000   0.000   0.000
 14       -0.000   0.000  -0.000  -0.000  -0.000
 15        0.000  -0.000   0.000   0.000   0.000
 16       -0.000  -0.000   0.000   0.000   0.000
 17       -0.000  -0.000   0.000   0.000   0.000
 18       -0.000  -0.000  -0.000  -0.000  -0.000
 19        0.000  -0.000   0.000   0.000   0.000
 20       -0.000  -0.000  -0.000   0.000   0.000
 21       -0.000  -0.000   0.000   0.004   0.004
 22       -0.000  -0.000   0.000   0.000   0.000
 23       -0.000  -0.000  -0.000   0.000   0.000
 24       -0.000  -0.000  -0.000   0.001   0.001
 25       -0.000  -0.000  -0.000   0.001   0.001
 26       -0.000  -0.000   0.000   0.004   0.004
 27       -0.000  -0.000   0.000   0.004   0.004
 28        0.000  -0.000   0.000   0.000   0.000
 29       -0.000  -0.000   0.000   0.003   0.003
 30        0.000  -0.000  -0.000   0.000   0.000
 31        0.000  -0.000  -0.000   0.001   0.001
 32       -0.000  -0.000   0.000   0.006   0.006
 33       -0.000  -0.000  -0.000  -0.000  -0.001
 34       -0.000  -0.000  -0.000   0.001   0.001
 35       -0.003  -0.006   0.013   0.977   0.980
 36       -0.004  -0.006   0.011   0.979   0.980
 37       -0.000  -0.000   0.000   0.000  -0.000
 38       -0.000  -0.000   0.000   0.000  -0.000
 39       -0.000  -0.000   0.000   0.000  -0.000
 40       -0.000  -0.000   0.000   0.000  -0.000
 41       -0.000  -0.000   0.000   0.000  -0.000
 42       -0.000  -0.000   0.000   0.000  -0.000
 43       -0.000  -0.000   0.000   0.000  -0.000
 44       -0.000  -0.000   0.000   0.000  -0.000
 45       -0.000  -0.000   0.000   0.000  -0.000
 46       -0.000  -0.000   0.000   0.000  -0.000
 47       -0.000  -0.000   0.000   0.000  -0.000
 48       -0.000  -0.000   0.000   0.000  -0.000
 49       -0.000  -0.000   0.000   0.000  -0.000
 50       -0.000  -0.000   0.000   0.000  -0.000
 51       -0.000  -0.000   0.000   0.000  -0.000
 52       -0.000  -0.000   0.000   0.000  -0.000
 53       -0.000  -0.000   0.000   0.000  -0.000
 54        0.000  -0.000   0.000   0.000  -0.000
 55       -0.000  -0.000   0.000   0.000  -0.000
 56       -0.000  -0.000   0.000   0.000  -0.000
 57        0.000  -0.000   0.000   0.000  -0.000
 58       -0.000  -0.000   0.000   0.000  -0.000
 59        0.000  -0.000   0.000   0.000  -0.000
 60       -0.000  -0.000   0.000   0.000  -0.000
[...]
 98        0.000   0.000   0.000   0.000   0.000
 99       -0.000  -0.000   0.000   0.000  -0.001
100       -0.000  -0.005   0.000   0.000  -0.005
101       -0.000  -0.003   0.000   0.000  -0.004
102       -0.000  -0.000   0.000   0.000  -0.000
103       -0.000  -0.004   0.000   0.000  -0.004
104       -0.000  -0.006   0.000   0.000  -0.007
105       -0.000  -0.004   0.000   0.000  -0.004
106       -0.000  -0.004   0.000   0.000  -0.004
107       -0.000  -0.001   0.000   0.000  -0.001
108        0.000  -0.000   0.001   0.000   0.001
109        0.000  -0.002   0.000   0.000  -0.002
110        0.000  -0.000   0.000   0.000  -0.000
111       -0.000  -0.000   0.000   0.000  -0.000
112        0.000   0.000   0.000   0.000   0.000
tot       -0.010  -0.064   0.026   1.981   1.933