 vasp.5.3.5 31Mar14 (build May 27 2014 14:39:49) gamma-only

 executed on           LinuxIFORT date 2020.11.04  04:38:03

 INCAR:
 POTCAR:    PAW_PBE Ce 23Dec2003
 POTCAR:    PAW_PBE O 08Apr2002
 POTCAR:    PAW_PBE Pt 04Feb2005
 POTCAR:    PAW_PBE O 08Apr2002
 POTCAR:    PAW_PBE C 08Apr2002
 POTCAR:    PAW_PBE O 08Apr2002
 POTCAR:    PAW_PBE Ce 23Dec2003
   VRHFIN =Ce : [core= Kr 4d10]

   TITEL  = PAW_PBE Ce 23Dec2003
   POMASS =  140.115; ZVAL   =   12.000    mass and valenz
   ENMAX  =  273.042; ENMIN  =  204.781 eV

 POTCAR:    PAW_PBE O 08Apr2002
   VRHFIN =O: s2p4

   TITEL  = PAW_PBE O 08Apr2002
   POMASS =   16.000; ZVAL   =    6.000    mass and valenz
   ENMAX  =  400.000; ENMIN  =  300.000 eV

 POTCAR:    PAW_PBE Pt 04Feb2005
   VRHFIN =Pt: s1d9

   TITEL  = PAW_PBE Pt 04Feb2005
   POMASS =  195.080; ZVAL   =   10.000    mass and valenz
   ENMAX  =  230.283; ENMIN  =  172.712 eV

[...]

 POTCAR:    PAW_PBE C 08Apr2002
   VRHFIN =C: s2p2

[...]

 POTCAR:    PAW_PBE O 08Apr2002
   VRHFIN =O: s2p4

   TITEL  = PAW_PBE O 08Apr2002
   POMASS =   16.000; ZVAL   =    6.000    mass and valenz
   ENMAX  =  400.000; ENMIN  =  300.000 eV

 Optimization of the real space projectors (new method)

 maximal supplied QI-value         = 13.98
 optimisation between [QCUT,QGAM] = [ 10.21, 20.42] = [ 29.18,116.73] Ry
 Optimized for a Real-space Cutoff    1.65 Angstroem

   l    n(q)    QCUT    max X(q) W(low)/X(q) W(high)/X(q)  e(spline)
   0     10    10.208     8.553    0.18E-04    0.75E-05    0.12E-06
   0     10    10.208     8.106    0.26E-04    0.16E-04    0.24E-06
   1     10    10.208     4.160    0.93E-05    0.96E-06    0.75E-07
   1     10    10.208     3.597    0.23E-04    0.26E-04    0.15E-06
   2      9    10.208     8.183    0.11E-03    0.28E-03    0.51E-06
   2      9    10.208     6.077    0.74E-04    0.19E-03    0.37E-06
   3      9    10.208   116.013    0.19E-03    0.98E-05    0.18E-06
   3      9    10.208   108.937    0.19E-03    0.10E-04    0.18E-06
 Optimization of the real space projectors (new method)

[...]

   l    n(q)    QCUT    max X(q) W(low)/X(q) W(high)/X(q)  e(spline)
   0      9    10.053   115.676    0.19E-03    0.21E-03    0.38E-06
   0      9    10.053    87.132    0.19E-03    0.21E-03    0.38E-06
   1      9    10.053     4.429    0.87E-04    0.11E-03    0.39E-06
   1      9    10.053     2.733    0.59E-04    0.62E-04    0.43E-06
 Optimization of the real space projectors (new method)

 maximal supplied QI-value         = 24.76
 optimisation between [QCUT,QGAM] = [ 10.15, 20.30] = [ 28.85,115.39] Ry
 Optimized for a Real-space Cutoff    1.51 Angstroem

   l    n(q)    QCUT    max X(q) W(low)/X(q) W(high)/X(q)  e(spline)
   0      9    10.150    20.381    0.17E-03    0.18E-03    0.41E-06
   0      9    10.150    15.268    0.18E-03    0.20E-03    0.43E-06
   1      9    10.150     5.964    0.16E-03    0.20E-03    0.36E-06
   1      9    10.150     5.382    0.13E-03    0.16E-03    0.33E-06
  PAW_PBE Ce 23Dec2003                  :
  PAW_PBE O 08Apr2002                   :
  PAW_PBE Pt 04Feb2005                  :
  PAW_PBE O 08Apr2002                   :
  PAW_PBE C 08Apr2002                   :
  PAW_PBE O 08Apr2002                   :

 POSCAR: CeO2-110-l3-p23:
  positions in direct lattice
  velocities in cartesian coordinates
 exchange correlation table for  LEXCH =        8
   RHO(1)=    0.500       N(1)  =     2000
   RHO(2)=  100.500       N(2)  =     4000

 VTST: version 3.1, (03/28/14)

 CHAIN: initializing optimizer

 OPT: Using VASP Conjugate-Gradient optimizer
 CHAIN: Read ICHAIN            0

 POSCAR: CeO2-110-l3-p23:
  positions in direct lattice
  velocities in cartesian coordinates

 ion  position               nearest neighbor table
   1  0.771  0.167  0.000-  36 2.38  40 2.38  39 2.38  44 2.38  52 2.38  54 2.38
   2  0.771  0.500  0.000-  36 2.38  38 2.38  40 2.38  46 2.38  58 2.38  59 2.38
   3  0.271  0.167  0.000-  41 2.38  45 2.38  43 2.38  37 2.38  50 2.38  51 2.38
   4  0.771  0.833  0.000-  38 2.38  46 2.38  44 2.38  39 2.38  49 2.38  53 2.38
   5  0.271  0.500  0.000-  41 2.38  42 2.38  45 2.38  47 2.38  56 2.38  57 2.38
   6  0.271  0.833  0.000-  42 2.38  47 2.38  43 2.38  37 2.38  48 2.38  55 2.38
   7  0.521  0.000  0.079-  66 2.37  60 2.37  50 2.38  54 2.38  48 2.38  49 2.38  43 2.38  44 2.38

   8  0.521  0.667  0.079-  62 2.37  49 2.38  48 2.38  59 2.38  56 2.38  42 2.38  38 2.38  61 2.38

[...]

  24  0.517  0.334  0.233-  84 2.30  68 2.32  80 2.34  70 2.35  78 2.36  77 2.42  72 2.43  87 2.48
                           107 3.26
  25  0.765  0.502  0.311- 105 2.30  84 2.32  89 2.33  77 2.34  91 2.34  75 2.38  93 2.38 108 3.04

[...]

  28  0.275  0.835  0.315-  92 2.32  90 2.34  86 2.34  98 2.35  95 2.38  97 2.39  74 2.41  76 2.44

[...]

  31  0.024  0.000  0.385- 102 2.21  95 2.25 100 2.29  85 2.30 101 2.32  97 2.33
  32  0.521  0.989  0.387-  98 2.22  88 2.24  96 2.26  90 2.27  99 2.28 107 3.21
  33  0.030  0.682  0.387- 106 2.20  97 2.21  91 2.23  86 2.24 101 2.25
  34  0.522  0.666  0.386- 109 2.12  89 2.30  92 2.32  96 2.35  98 2.35 105 2.41
  35  0.020  0.324  0.391- 104 2.13  93 2.31 102 2.32  94 2.35 106 2.35 100 2.37
  36  0.646  0.333  0.000-   1 2.38   2 2.38  10 2.38
  37  0.146  0.000  0.000-   3 2.38   6 2.38   9 2.38
  38  0.646  0.667  0.000-   4 2.38   2 2.38   8 2.38
  39  0.896  0.000  0.000-   1 2.38   4 2.38   9 2.38
  40  0.896  0.333  0.000-   1 2.38   2 2.38  11 2.38
  41  0.146  0.333  0.000-   3 2.38   5 2.38  11 2.38
  42  0.396  0.667  0.000-   6 2.38   5 2.38   8 2.38
  43  0.396  0.000  0.000-   3 2.38   6 2.38   7 2.38
  44  0.646  0.000  0.000-   1 2.38   4 2.38   7 2.38
  45  0.396  0.333  0.000-   3 2.38   5 2.38  10 2.38
  46  0.896  0.667  0.000-   4 2.38   2 2.38  12 2.38
  47  0.146  0.667  0.000-   6 2.38   5 2.38  12 2.38
  48  0.396  0.833  0.079-  18 2.38   8 2.38   7 2.38   6 2.38
  49  0.646  0.833  0.079-   8 2.38   7 2.38   4 2.38  14 2.39
  50  0.396  0.167  0.079-  10 2.38   7 2.38   3 2.38  15 2.39
  51  0.146  0.167  0.079-  11 2.38   9 2.38   3 2.38  15 2.38
  52  0.896  0.167  0.079-  11 2.38   9 2.38   1 2.38  13 2.39
  53  0.896  0.833  0.079-  12 2.38   9 2.38   4 2.38  14 2.39
  54  0.646  0.167  0.079-  10 2.38   7 2.38   1 2.38  13 2.39
  55  0.146  0.833  0.079-  12 2.38   9 2.38   6 2.38  18 2.38
  56  0.396  0.500  0.079-   8 2.38  10 2.38   5 2.38  17 2.40
  57  0.146  0.500  0.079-  11 2.38  12 2.38   5 2.38  17 2.39
  58  0.896  0.500  0.079-  16 2.36  12 2.38  11 2.38   2 2.38
  59  0.646  0.500  0.079-  16 2.37  10 2.38   8 2.38   2 2.38
  60  0.647  0.000  0.157-  23 2.35   7 2.37  14 2.37  13 2.38
  61  0.395  0.666  0.157-  20 2.33  17 2.37   8 2.38  18 2.38
  62  0.647  0.669  0.157-  20 2.35  14 2.35   8 2.37  16 2.40
  63  0.896  0.667  0.157-  12 2.36  19 2.37  14 2.37  16 2.38
  64  0.146  0.000  0.157-  22 2.34   9 2.37  15 2.37  18 2.37
  65  0.896  1.000  0.158-  22 2.32  14 2.37   9 2.39  13 2.39
  66  0.396  0.002  0.157-  23 2.36  15 2.37   7 2.37  18 2.39
  67  0.146  0.666  0.157-  19 2.34  17 2.36  12 2.38  18 2.39
  68  0.394  0.334  0.156-  24 2.32  17 2.37  15 2.37  10 2.37
  69  0.896  0.334  0.157-  13 2.37  16 2.37  11 2.38  21 2.39
  70  0.645  0.333  0.157-  24 2.35  10 2.36  13 2.37  16 2.39
  71  0.146  0.334  0.158-  21 2.35  17 2.37  15 2.38  11 2.39
  72  0.647  0.165  0.235-  23 2.34  13 2.34  24 2.43  26 2.45
  73  0.647  0.838  0.236-  23 2.36  14 2.37  20 2.41  30 2.42
  74  0.397  0.837  0.234-  18 2.34  23 2.37  20 2.38  28 2.41
  75  0.895  0.503  0.234-  16 2.35  19 2.36  25 2.38  21 2.40
  76  0.146  0.833  0.234-  18 2.35  22 2.37  19 2.38  28 2.44
  77  0.645  0.502  0.233-  25 2.34  16 2.34  20 2.38  24 2.42
  78  0.395  0.167  0.235-  24 2.36  15 2.36  23 2.38  29 2.45
  79  0.897  0.170  0.236-  26 2.35  21 2.37  13 2.39  22 2.41
  80  0.394  0.498  0.237-  24 2.34  17 2.37  20 2.42  27 2.47
  81  0.145  0.502  0.237-  19 2.35  21 2.36  17 2.39  27 2.48
  82  0.145  0.167  0.236-  15 2.37  22 2.38  21 2.38  29 2.41
  83  0.896  0.828  0.237-  19 2.34  14 2.39  30 2.40  22 2.43
  84  0.641  0.340  0.307- 107 2.03  24 2.30  25 2.32  26 2.50 108 2.66
  85  0.897  0.997  0.311-  31 2.30  22 2.34  30 2.36  26 2.40
  86  0.149  0.673  0.314-  33 2.24  28 2.34  27 2.41  19 2.41
  87  0.392  0.330  0.317- 107 2.00  29 2.35  27 2.41  24 2.48
  88  0.649  0.004  0.317-  32 2.24  26 2.38  30 2.41  23 2.47
  89  0.645  0.668  0.311-  34 2.30  25 2.33  20 2.36  30 2.38
  90  0.398  0.999  0.313-  32 2.27  28 2.34  23 2.38  29 2.42
[...]
  93  0.899  0.341  0.315-  35 2.31  21 2.38  25 2.38  26 2.42
  94  0.149  0.331  0.315-  29 2.33  35 2.35  21 2.40  27 2.41
  95  0.147  0.999  0.312-  31 2.25  29 2.36  22 2.37  28 2.38
  96  0.642  0.833  0.391-  32 2.26  30 2.32  34 2.35
  97  0.145  0.837  0.392-  33 2.21  31 2.33  28 2.39
  98  0.404  0.834  0.391-  32 2.22  28 2.35  34 2.35
  99  0.410  0.154  0.395- 107 1.98  32 2.28  29 2.49
 100  0.146  0.159  0.392-  31 2.29  29 2.30  35 2.37
 101  0.905  0.836  0.391-  33 2.25  31 2.32  30 2.35
 102  0.907  0.155  0.387-  31 2.21  26 2.29  35 2.32
 103  0.667  0.185  0.400- 107 2.02 108 2.09  26 2.43
 104  0.874  0.399  0.436- 108 1.99  35 2.13
 105  0.684  0.529  0.396- 108 2.03  25 2.30  34 2.41
 106  0.108  0.508  0.389-  33 2.20  35 2.35  27 2.47
 107  0.527  0.259  0.360-  99 1.98  87 2.00 103 2.02  84 2.03 108 2.62  26 3.13  32 3.21  29 3.23
                            24 3.26
 108  0.706  0.359  0.411- 104 1.99 105 2.03 103 2.09 107 2.62  84 2.66  25 3.04  26 3.33
 109  0.388  0.536  0.391-  34 2.12  27 2.20
 110  0.418  0.403  0.503- 111 1.18
 111  0.475  0.319  0.510- 110 1.18 112 1.18
 112  0.531  0.235  0.519- 111 1.18

IMPORTANT INFORMATION: All symmetrisations will be switched off!
NOSYMM: (Re-)initialisation of all symmetry stuff for point group C_1.

 KPOINTS: CeO2-111-3x3-9layers         ! Comment

Automatic generation of k-mesh.
Space group operators:
 irot       det(A)        alpha          n_x          n_y          n_z        tau_x        tau_y        tau_z
    1     1.000000     0.000000     1.000000     0.000000     0.000000     0.000000     0.000000     0.000000

 Subroutine IBZKPT returns following result:

 Found      1 irreducible k-points:

 Following reciprocal coordinates:
            Coordinates               Weight
  0.000000  0.000000  0.000000      1.000000

 Following cartesian coordinates:
            Coordinates               Weight
  0.000000  0.000000  0.000000      1.000000

 I would recommend the setting:
   dimension x,y,z NGX =    72 NGY =   76 NGZ =  161
 SYSTEM =  unknown system
 POSCAR =  CeO2-110-l3-p23:

 Startparameter for this run:
   NWRITE =      2    write-flag & timer
   PREC   = accura    normal or accurate (medium, high low for compatibility)
   ISTART =      1    job   : 0-new  1-cont  2-samecut
   ICHARG =      0    charge: 1-file 2-atom 10-const
   ISPIN  =      2    spin polarized calculation?
   LNONCOLLINEAR =      F non collinear calculations
   LSORBIT =      F    spin-orbit coupling
   INIWAV =      1    electr: 0-lowe 1-rand  2-diag
   LASPH  =      T    aspherical Exc in radial PAW
[...]
   0.677E+02 -.131E+00 0.161E+04   -.738E+02 0.117E+00 -.162E+04   0.722E+01 0.253E-01 0.506E+01   0.702E-03 0.629E-03 -.316E-02
   0.688E+02 0.252E+00 0.161E+04   -.748E+02 -.247E+00 -.162E+04   0.714E+01 -.841E-02 0.513E+01   0.704E-03 -.596E-04 -.323E-02
   0.680E+02 -.349E+00 0.161E+04   -.740E+02 0.362E+00 -.162E+04   0.719E+01 -.237E-01 0.508E+01   0.110E-02 -.174E-03 -.307E-02
   -.685E+02 0.281E+00 0.161E+04   0.745E+02 -.284E+00 -.162E+04   -.715E+01 0.676E-02 0.510E+01   -.684E-03 -.609E-03 -.288E-02
   -.691E+02 0.897E-01 0.161E+04   0.751E+02 -.984E-01 -.162E+04   -.717E+01 0.153E-01 0.512E+01   -.666E-03 0.657E-03 -.316E-02
   0.684E+02 -.431E+00 0.161E+04   -.744E+02 0.438E+00 -.162E+04   0.715E+01 -.152E-01 0.510E+01   0.531E-03 -.304E-03 -.320E-02
   -.673E+02 0.154E+00 0.161E+04   0.734E+02 -.171E+00 -.162E+04   -.718E+01 0.325E-01 0.506E+01   -.530E-03 0.442E-03 -.326E-02
   -.676E+02 0.463E+00 0.161E+04   0.737E+02 -.452E+00 -.162E+04   -.722E+01 -.205E-01 0.504E+01   -.891E-03 -.134E-03 -.357E-02
   0.673E+02 0.492E+00 0.161E+04   -.734E+02 -.493E+00 -.162E+04   0.721E+01 0.251E-02 0.503E+01   0.971E-03 -.436E-03 -.309E-02
   -.671E+02 -.606E+00 0.161E+04   0.731E+02 0.611E+00 -.162E+04   -.719E+01 -.937E-02 0.503E+01   -.727E-03 -.305E-03 -.344E-02
   -.688E+02 -.382E+00 0.161E+04   0.748E+02 0.394E+00 -.162E+04   -.719E+01 -.208E-01 0.508E+01   -.122E-02 -.176E-03 -.314E-02
   0.682E+02 0.174E+00 0.161E+04   -.742E+02 -.187E+00 -.162E+04   0.718E+01 0.254E-01 0.507E+01   0.601E-03 0.437E-03 -.349E-02
   -.424E+01 0.165E+01 0.995E+03   0.484E+01 -.166E+01 -.995E+03   -.950E+00 0.119E-01 -.782E+00   0.862E-04 -.254E-03 -.550E-02
   0.307E+01 -.250E+00 0.995E+03   -.356E+01 0.257E+00 -.995E+03   0.858E+00 0.889E-02 -.952E+00   0.430E-03 0.957E-04 -.494E-02
   -.252E+01 -.643E+00 0.997E+03   0.301E+01 0.613E+00 -.996E+03   -.873E+00 0.592E-01 -.998E+00   -.138E-03 0.644E-05 -.510E-02
   0.628E+01 -.219E+01 0.994E+03   -.676E+01 0.218E+01 -.993E+03   0.803E+00 0.486E-01 -.804E+00   -.813E-04 -.419E-04 -.500E-02
   -.596E+01 0.114E+01 0.993E+03   0.640E+01 -.115E+01 -.992E+03   -.784E+00 -.188E-01 -.876E+00   0.268E-04 -.268E-03 -.474E-02
   -.502E+01 -.101E+01 0.993E+03   0.547E+01 0.949E+00 -.992E+03   -.806E+00 0.132E+00 -.902E+00   -.132E-03 0.125E-03 -.518E-02
   0.249E+01 0.113E+01 0.997E+03   -.301E+01 -.120E+01 -.997E+03   0.897E+00 0.909E-01 -.915E+00   0.388E-03 -.437E-04 -.417E-02
   0.618E+01 0.209E+01 0.994E+03   -.674E+01 -.214E+01 -.993E+03   0.900E+00 0.550E-01 -.826E+00   -.363E-03 0.994E-04 -.534E-02
   -.812E+00 -.140E+01 0.992E+03   0.113E+01 0.137E+01 -.991E+03   -.680E+00 0.541E-01 -.105E+01   -.208E-03 0.183E-03 -.481E-02
   0.333E+01 0.151E+00 0.991E+03   -.369E+01 -.151E+00 -.991E+03   0.701E+00 -.123E-01 -.917E+00   0.298E-03 -.724E-04 -.470E-02
   -.867E+01 0.116E+00 0.996E+03   0.938E+01 -.120E+00 -.995E+03   -.105E+01 -.531E-02 -.772E+00   -.578E-03 -.197E-03 -.571E-02
   0.622E+01 -.142E+01 0.997E+03   -.692E+01 0.137E+01 -.996E+03   0.106E+01 0.839E-01 -.761E+00   0.318E-03 -.205E-03 -.509E-02
   -.658E+01 0.452E+01 0.372E+03   0.698E+01 -.451E+01 -.373E+03   -.406E+00 -.235E-02 0.457E+00   0.340E-02 -.338E-03 0.196E-02
[...]
   0.158E+03 0.206E+02 -.159E+04   -.173E+03 -.243E+02 0.161E+04   0.147E+02 0.369E+01 -.147E+02   -.258E-02 -.216E-02 -.448E-02
   -.892E+02 -.720E+00 -.159E+04   0.945E+02 0.143E+01 0.160E+04   -.532E+01 -.712E+00 -.788E+01   0.260E-02 0.185E-02 -.784E-02
   0.858E+02 0.129E+02 -.159E+04   -.919E+02 -.122E+02 0.160E+04   0.614E+01 -.667E+00 -.719E+01   -.105E-02 -.519E-03 -.301E-02
   0.219E+02 0.610E+02 -.153E+04   -.274E+02 -.600E+02 0.154E+04   0.553E+01 -.106E+01 -.746E+01   0.953E-03 0.121E-02 -.355E-02
   -.629E+02 0.177E+03 -.160E+04   0.718E+02 -.195E+03 0.161E+04   -.890E+01 0.172E+02 -.135E+02   0.206E-02 -.804E-02 -.687E-02
   -.827E+02 -.129E+03 -.171E+04   0.907E+02 0.139E+03 0.172E+04   -.794E+01 -.932E+01 -.130E+02   0.645E-02 0.482E-02 -.308E-02
   -.126E+02 -.152E+03 -.155E+04   0.131E+02 0.165E+03 0.156E+04   -.535E+00 -.128E+02 -.551E+01   -.585E-02 0.109E-01 -.808E-02
   -.491E+02 -.237E+01 -.152E+04   0.521E+02 0.152E+00 0.153E+04   -.308E+01 0.222E+01 -.438E+01   0.981E-02 0.243E-02 -.629E-02
   0.141E+03 -.702E+02 -.208E+04   -.140E+03 0.699E+02 0.208E+04   -.633E+00 0.245E+00 -.135E+01   0.310E-02 -.127E-01 -.717E-02
   0.336E+02 -.699E+02 -.262E+04   -.306E+02 0.725E+02 0.262E+04   -.294E+01 -.258E+01 -.772E+00   -.219E-02 -.435E-02 -.642E-02
   0.668E+02 0.619E+02 -.156E+04   -.691E+02 -.699E+02 0.157E+04   0.236E+01 0.805E+01 -.104E+02   0.872E-03 0.294E-02 -.398E-02
   0.183E+03 -.231E+03 -.134E+04   -.217E+03 0.285E+03 0.133E+04   0.338E+02 -.533E+02 0.108E+02   -.816E-02 0.822E-02 -.374E-03
   0.326E+02 -.812E+01 -.901E+03   -.326E+02 0.814E+01 0.901E+03   -.118E-01 -.225E-01 0.211E+00   0.555E-02 -.392E-02 0.314E-02
   -.997E+02 0.229E+03 -.138E+04   0.133E+03 -.282E+03 0.139E+04   -.335E+02 0.526E+02 -.109E+02   -.186E-01 0.587E-01 -.831E-02
   -.314E+01 0.130E+02 0.424E+02   -.142E-12 0.000E+00 0.123E-10   0.307E+01 -.129E+02 -.426E+02   0.909E-02 0.165E-01 -.178E+00

 POSITION                                       TOTAL-FORCE (eV/Angst)
      8.46781      1.94101      0.00000        -0.028647     -0.009482      2.524467
      8.46781      5.82303      0.00000        -0.009803      0.000732      2.462921
      2.97781      1.94101      0.00000         0.038079      0.010455      2.524492
      8.46781      9.70504      0.00000        -0.019219      0.005601      2.533981
      2.97781      5.82303      0.00000         0.025634     -0.007223      2.562380
      2.97781      9.70504      0.00000         0.012629     -0.006169      2.490066
      5.72281      0.00000      1.94101         0.022260      0.048882     -0.932625
      5.72281      7.76403      1.94101        -0.031017      0.008568     -1.026642
      0.23281      0.00000      1.94101        -0.028764     -0.001396     -1.006101
      5.72281      3.88202      1.94101        -0.038987     -0.021106     -1.055180
      0.23281      3.88202      1.94101         0.006045      0.013814     -0.833693
      0.23281      7.76403      1.94101         0.010769      0.003824     -0.920379
      8.46615      1.95388      3.89442         0.009461      0.005469     -0.012528
      8.46667      9.70541      3.89564         0.007203     -0.002275     -0.018883
      2.97121      1.94096      3.89233         0.000709      0.001273     -0.017367
      8.47218      5.82712      3.86954         0.003864     -0.000313     -0.015474
      2.96805      5.82645      3.90814        -0.001555     -0.004077     -0.008189
      2.97949      9.71415      3.88252        -0.002923     -0.004770     -0.023514
      0.24499      7.75698      5.79329         0.002918     -0.011136     -0.001715
      5.70862      7.78715      5.76033        -0.006363     -0.007517     -0.006175
      0.25386      3.90361      5.82508         0.000834      0.005071      0.003099
      0.23694     11.63853      5.77206         0.001453      0.005053     -0.011149
      5.73876      0.03022      5.78450        -0.001872      0.004317     -0.011314
      5.67407      3.88666      5.74827        -0.008040      0.007993      0.001757
      8.39853      5.84523      7.68962         0.008492     -0.009594      0.003545
      8.53170      1.96616      7.79261         0.017931      0.018545     -0.007999
      2.98604      5.85388      7.91363        -0.006588     -0.010764     -0.003038
      3.02503      9.72031      7.77793        -0.004065     -0.006209     -0.005946
      2.93871      1.93060      7.82851        -0.007943      0.012412     -0.010490
      8.47431      9.70633      7.82445         0.009572     -0.001636     -0.002105
      0.26690      0.00249      9.50306        -0.005061      0.007919      0.013420
      5.71900     11.51766      9.56195        -0.015813      0.007395      0.022794
      0.32565      7.94745      9.57027         0.003209     -0.023263      0.006940
      5.72823      7.75716      9.52652        -0.001472     -0.013517      0.015455
      0.21837      3.76962      9.65821        -0.008304      0.024514     -0.007258
      7.09531      3.88202      0.00000         1.154281      0.010720     -0.462728
      1.60531      0.00000      0.00000         1.123653     -0.005329     -0.434195
      7.09531      7.76403      0.00000         1.142622     -0.012374     -0.454690
      9.84031      0.00000      0.00000        -1.124366      0.002325     -0.442314
      9.84031      3.88202      0.00000        -1.133324      0.006039     -0.440303
      1.60531      3.88202      0.00000         1.126312     -0.009091     -0.443334
      4.35031      7.76403      0.00000        -1.140074      0.014944     -0.458913
      4.35031      0.00000      0.00000        -1.156202     -0.010972     -0.469079
      7.09531      0.00000      0.00000         1.155552      0.000225     -0.473307
      4.35031      3.88202      0.00000        -1.147500     -0.006252     -0.471084
      9.84031      7.76403      0.00000        -1.143577     -0.010800     -0.452695
      1.60531      7.76403      0.00000         1.140779      0.012074     -0.456392
      4.35031      9.70504      1.94101        -0.355676     -0.003843     -0.309662
      7.09531      9.70504      1.94101         0.372092      0.014403     -0.352255
      4.35031      1.94101      1.94101        -0.375753      0.027705     -0.351210
      1.60531      1.94101      1.94101         0.328276      0.036710     -0.294788
      9.84031      1.94101      1.94101        -0.339989     -0.030080     -0.275227
      9.84031      9.70504      1.94101        -0.353682      0.065408     -0.301377
      7.09531      1.94101      1.94101         0.381328      0.018937     -0.333068
      1.60531      9.70504      1.94101         0.342323      0.001561     -0.314436
      4.35031      5.82303      1.94101        -0.360983      0.020961     -0.293837
      1.60531      5.82303      1.94101         0.343926     -0.014178     -0.292473
      9.84031      5.82303      1.94101        -0.338165     -0.010935     -0.376021
      7.09531      5.82303      1.94101         0.360166      0.036033     -0.335849
      7.10396      0.00140      3.86693        -0.001089     -0.001766      0.010954
[...]
      4.43167      9.71610      9.66237        -0.001045     -0.005529     -0.005965
      4.50094      1.78938      9.76573        -0.003053      0.001619     -0.000863
      1.60345      1.84706      9.69492         0.008618     -0.001862      0.000676
      9.93988      9.73894      9.65637        -0.005980     -0.006865     -0.003361
      9.96428      1.80708      9.57191        -0.000933     -0.006299     -0.001589
      7.31836      2.15892      9.89322         0.002089     -0.002854     -0.000675
      9.59761      4.64155     10.76916         0.000882     -0.022002      0.014265
      7.51328      6.16332      9.78942         0.009532     -0.000260      0.003539
      1.18324      5.91638      9.60840        -0.010558      0.002391      0.003950
      5.78970      3.01376      8.88858        -0.021284     -0.010384      0.001159
      7.75541      4.18603     10.15327         0.008679     -0.003467      0.002291
      4.25988      6.23828      9.66240        -0.002473      0.002949      0.000422
      4.59087      4.69328     12.43151         0.013910     -0.017535      0.004855
      5.21448      3.71209     12.61135        -0.005237     -0.016290      0.000655
      5.82829      2.73038     12.82537        -0.017138     -0.027228      0.002041
    total drift:                               -0.064344      0.132357     -0.380016

  FREE ENERGIE OF THE ION-ELECTRON SYSTEM (eV)
  free  energy   TOTEN  =      -905.99563546 eV

  energy  without entropy=     -905.99563546  energy(sigma->0) =     -905.99563546

 d Force = 0.1107692E-03[-0.293E-04, 0.251E-03]  d Energy = 0.1242673E-03-0.135E-04
 d Force = 0.6104167E+01[ 0.610E+01, 0.610E+01]  d Ewald  = 0.6104167E+01-0.218E-06

 stress matrix after NEB project (eV)
    -72.64217      1.53784      0.42674
      1.53785   -116.28506     -1.97475
      0.42676     -1.97475    -68.28766
  FORCES: max atom, RMS     0.032238    0.011003
  FORCE total and by dimension    0.116442    0.027228
  Stress total and by dimension  153.216184  116.285064
 Conjugate gradient step on ions:
 trial-energy change:   -0.000124  1 .order   -0.000111   -0.000251    0.000029
  (g-gl).g = 0.313E-03      g.g   = 0.282E-03  gl.gl    = 0.501E-03
 g(Force)  = 0.282E-03   g(Stress)= 0.000E+00 ortho     =-0.316E-04
 gamma     =   0.62545
 trial     =   0.95819
 opt step  =   0.85786  (harmonic =   0.85786) maximal distance =0.00051059
 next E    =  -905.995623   (d E  =  -0.00011)

 reached required accuracy - stopping structural energy minimisation
 writing wavefunctions

 total charge

[...]

 magnetization (x)

# of ion     s       p       d       f       tot
  1       -0.000  -0.000   0.000   0.000   0.000
  2       -0.000  -0.000  -0.000   0.000  -0.000
  3        0.000   0.000   0.000   0.000   0.000
  4       -0.000   0.000   0.000   0.000  -0.000
  5       -0.000  -0.000   0.000   0.000  -0.000
  6        0.000   0.000   0.000   0.000   0.000
  7       -0.000   0.000   0.000   0.000   0.000
  8       -0.000   0.000  -0.000   0.000   0.000
  9       -0.000  -0.000   0.000   0.000  -0.000
 10       -0.000   0.000   0.000   0.000  -0.000
 11       -0.000   0.000   0.000   0.000  -0.000
 12        0.000   0.000   0.000  -0.000   0.000
 13       -0.000  -0.000  -0.000   0.000  -0.000
 14       -0.000  -0.000  -0.000   0.000  -0.000
 15       -0.000  -0.000  -0.000   0.000  -0.000
 16       -0.000  -0.000   0.000   0.000  -0.000
 17       -0.000  -0.000  -0.000   0.000  -0.000
 18       -0.000  -0.000   0.000   0.000  -0.000
 19       -0.000  -0.000  -0.000   0.000  -0.000
 20       -0.000  -0.000  -0.000   0.000  -0.000
 21       -0.000  -0.000   0.000   0.000   0.000
 22       -0.000  -0.000  -0.000   0.000  -0.000
 23        0.000  -0.000  -0.000   0.000   0.000
 24        0.000   0.000   0.000   0.000   0.000
 25       -0.000   0.000   0.000   0.000   0.000
 26        0.000   0.000   0.000   0.000   0.000
 27       -0.000   0.000  -0.000  -0.000  -0.000
 28       -0.000  -0.000  -0.000  -0.000  -0.000
 29       -0.000  -0.000  -0.000   0.000  -0.000
 30        0.000  -0.000  -0.000  -0.000   0.000
 31       -0.000   0.000   0.000   0.000  -0.000
 32       -0.000  -0.000   0.000   0.000  -0.000
 33       -0.000  -0.000   0.000  -0.000  -0.000
 34        0.000   0.000   0.000  -0.000   0.000
 35        0.000   0.000  -0.000  -0.000   0.000
 36       -0.000  -0.000   0.000   0.000  -0.000
 37       -0.000  -0.000   0.000   0.000  -0.000
 38       -0.000  -0.000   0.000   0.000  -0.000
 39       -0.000  -0.000   0.000   0.000  -0.000
 40       -0.000  -0.000   0.000   0.000  -0.000
 41       -0.000  -0.000   0.000   0.000  -0.000
 42       -0.000  -0.000   0.000   0.000  -0.000
 43       -0.000  -0.000   0.000   0.000  -0.000
 44       -0.000  -0.000   0.000   0.000  -0.000
 45        0.000  -0.000   0.000   0.000  -0.000
 46       -0.000  -0.000   0.000   0.000  -0.000
 47       -0.000  -0.000   0.000   0.000  -0.000
 48       -0.000  -0.000   0.000   0.000  -0.000
 49       -0.000  -0.000   0.000   0.000  -0.000
 50       -0.000  -0.000   0.000   0.000  -0.000
 51       -0.000  -0.000   0.000   0.000  -0.000
 52        0.000  -0.000   0.000   0.000  -0.000
 53       -0.000  -0.000   0.000   0.000  -0.000
 54       -0.000  -0.000   0.000   0.000  -0.000
 55       -0.000  -0.000   0.000   0.000  -0.000
 56       -0.000  -0.000   0.000   0.000  -0.000
 57       -0.000  -0.000   0.000   0.000  -0.000
 58       -0.000  -0.000   0.000   0.000  -0.000
 59       -0.000  -0.000   0.000   0.000  -0.000
 60        0.000  -0.000   0.000   0.000  -0.000
[...]
 98       -0.000  -0.000   0.000   0.000  -0.000
 99       -0.000   0.000   0.000   0.000   0.000
100       -0.000   0.000   0.000   0.000   0.000
101        0.000  -0.000   0.000   0.000  -0.000
102        0.000  -0.000   0.000   0.000  -0.000
103        0.000  -0.000   0.000   0.000  -0.000
104        0.000   0.000   0.000   0.000   0.000
105       -0.000  -0.000   0.000   0.000  -0.000
106       -0.000   0.000   0.000   0.000   0.000
107       -0.000  -0.000  -0.000   0.000  -0.000
108       -0.000  -0.000   0.000   0.000   0.000
109       -0.000   0.000   0.000   0.000   0.000
110        0.000  -0.000   0.000   0.000   0.000
111       -0.000  -0.000   0.000   0.000  -0.000
112        0.000   0.000   0.000   0.000   0.000
tot       -0.000  -0.000   0.000   0.000  -0.000