 vasp.5.3.5 31Mar14 (build May 27 2014 14:39:49) gamma-only

 executed on           LinuxIFORT date 2020.09.29  03:01:31

 INCAR:
 POTCAR:    PAW_PBE Ce 23Dec2003
 POTCAR:    PAW_PBE O 08Apr2002
 POTCAR:    PAW_PBE Pt 04Feb2005
 POTCAR:    PAW_PBE C 08Apr2002
 POTCAR:    PAW_PBE O 08Apr2002
 POTCAR:    PAW_PBE Ce 23Dec2003
   VRHFIN =Ce : [core= Kr 4d10]

   TITEL  = PAW_PBE Ce 23Dec2003
   POMASS =  140.115; ZVAL   =   12.000    mass and valenz
   ENMAX  =  273.042; ENMIN  =  204.781 eV

 POTCAR:    PAW_PBE O 08Apr2002
   VRHFIN =O: s2p4

   TITEL  = PAW_PBE O 08Apr2002
   POMASS =   16.000; ZVAL   =    6.000    mass and valenz
   ENMAX  =  400.000; ENMIN  =  300.000 eV

 POTCAR:    PAW_PBE Pt 04Feb2005
   VRHFIN =Pt: s1d9

   TITEL  = PAW_PBE Pt 04Feb2005
   POMASS =  195.080; ZVAL   =   10.000    mass and valenz
   ENMAX  =  230.283; ENMIN  =  172.712 eV

 POTCAR:    PAW_PBE C 08Apr2002
   VRHFIN =C: s2p2

[...]

 POTCAR:    PAW_PBE O 08Apr2002
   VRHFIN =O: s2p4

   TITEL  = PAW_PBE O 08Apr2002
   POMASS =   16.000; ZVAL   =    6.000    mass and valenz
   ENMAX  =  400.000; ENMIN  =  300.000 eV

 Optimization of the real space projectors (new method)

 maximal supplied QI-value         = 13.98
 optimisation between [QCUT,QGAM] = [ 10.21, 20.42] = [ 29.18,116.73] Ry
 Optimized for a Real-space Cutoff    1.65 Angstroem

   l    n(q)    QCUT    max X(q) W(low)/X(q) W(high)/X(q)  e(spline)
   0     10    10.208     8.553    0.18E-04    0.75E-05    0.12E-06
   0     10    10.208     8.106    0.26E-04    0.16E-04    0.24E-06
   1     10    10.208     4.160    0.93E-05    0.96E-06    0.75E-07
   1     10    10.208     3.597    0.23E-04    0.26E-04    0.15E-06
   2      9    10.208     8.183    0.11E-03    0.28E-03    0.51E-06
   2      9    10.208     6.077    0.74E-04    0.19E-03    0.37E-06
   3      9    10.208   116.013    0.19E-03    0.98E-05    0.18E-06
   3      9    10.208   108.937    0.19E-03    0.10E-04    0.18E-06
 Optimization of the real space projectors (new method)

[...]

   l    n(q)    QCUT    max X(q) W(low)/X(q) W(high)/X(q)  e(spline)
   0      9    10.053   115.676    0.19E-03    0.21E-03    0.38E-06
   0      9    10.053    87.132    0.19E-03    0.21E-03    0.38E-06
   1      9    10.053     4.429    0.87E-04    0.11E-03    0.39E-06
   1      9    10.053     2.733    0.59E-04    0.62E-04    0.43E-06
 Optimization of the real space projectors (new method)

 maximal supplied QI-value         = 24.76
 optimisation between [QCUT,QGAM] = [ 10.15, 20.30] = [ 28.85,115.39] Ry
 Optimized for a Real-space Cutoff    1.51 Angstroem

   l    n(q)    QCUT    max X(q) W(low)/X(q) W(high)/X(q)  e(spline)
   0      9    10.150    20.381    0.17E-03    0.18E-03    0.41E-06
   0      9    10.150    15.268    0.18E-03    0.20E-03    0.43E-06
   1      9    10.150     5.964    0.16E-03    0.20E-03    0.36E-06
   1      9    10.150     5.382    0.13E-03    0.16E-03    0.33E-06
  PAW_PBE Ce 23Dec2003                  :
  PAW_PBE O 08Apr2002                   :
  PAW_PBE Pt 04Feb2005                  :
  PAW_PBE C 08Apr2002                   :
  PAW_PBE O 08Apr2002                   :

 POSCAR: CeO2-110-l3-p23:
  positions in direct lattice
  velocities in cartesian coordinates
 exchange correlation table for  LEXCH =        8
   RHO(1)=    0.500       N(1)  =     2000
   RHO(2)=  100.500       N(2)  =     4000

 VTST: version 3.1, (03/28/14)

 CHAIN: initializing optimizer

 OPT: Using VASP Conjugate-Gradient optimizer
 CHAIN: Read ICHAIN            0

 POSCAR: CeO2-110-l3-p23:
  positions in direct lattice
  velocities in cartesian coordinates

 ion  position               nearest neighbor table
   1  0.771  0.167  0.000-  36 2.38  40 2.38  39 2.38  44 2.38  52 2.38  54 2.38
   2  0.771  0.500  0.000-  36 2.38  38 2.38  40 2.38  46 2.38  58 2.38  59 2.38
   3  0.271  0.167  0.000-  41 2.38  45 2.38  43 2.38  37 2.38  50 2.38  51 2.38
   4  0.771  0.833  0.000-  38 2.38  46 2.38  44 2.38  39 2.38  49 2.38  53 2.38
   5  0.271  0.500  0.000-  41 2.38  42 2.38  45 2.38  47 2.38  56 2.38  57 2.38
   6  0.271  0.833  0.000-  42 2.38  47 2.38  43 2.38  37 2.38  48 2.38  55 2.38
   7  0.521  0.000  0.079-  66 2.35  49 2.38  50 2.38  54 2.38  48 2.38  44 2.38  43 2.38  60 2.39

   8  0.521  0.667  0.079-  61 2.37  49 2.38  48 2.38  59 2.38  56 2.38  42 2.38  38 2.38  62 2.38

[...]

  23  0.523  0.002  0.234-  60 2.34  78 2.35  90 2.35  74 2.36  72 2.37  66 2.37  73 2.40  88 2.46

  24  0.520  0.333  0.233-  68 2.33  80 2.36  70 2.36  78 2.37  84 2.37  72 2.41  77 2.41  87 2.42
                           108 3.16
  25  0.774  0.498  0.311-  84 2.28  89 2.31  75 2.31  91 2.34 105 2.34  77 2.36  93 2.41
  26  0.775  0.167  0.314- 102 2.32  88 2.33  93 2.36  85 2.39  79 2.40  72 2.40  84 2.47 103 2.48
                           108 3.10
  27  0.274  0.503  0.320- 104 2.12  87 2.38  86 2.40  94 2.42  92 2.44  80 2.46  81 2.48
  28  0.276  0.834  0.315-  92 2.31  90 2.33  98 2.35  86 2.36  95 2.38  97 2.40  76 2.43  74 2.43

  29  0.272  0.167  0.317-  87 2.31 100 2.34  94 2.38  95 2.38  90 2.42  82 2.43  99 2.43  78 2.47
                           108 3.11
  30  0.771  0.832  0.318-  96 2.28 101 2.34  73 2.38  85 2.39  88 2.42  83 2.43  89 2.45  91 2.47

  31  0.024  0.002  0.384-  95 2.24  85 2.27 102 2.28 100 2.28  97 2.32 101 2.33
  32  0.518  0.991  0.386-  98 2.21  99 2.24  96 2.24  90 2.26  88 2.27 108 3.17
  33  0.029  0.683  0.388-  97 2.20 107 2.22  91 2.23  86 2.23 101 2.25
  34  0.518  0.669  0.390- 106 2.16 104 2.20  89 2.33  98 2.36  92 2.37  96 2.38
  35  0.014  0.325  0.385- 102 2.26  94 2.26  93 2.27 107 2.28 100 2.34 105 2.36
  36  0.646  0.333  0.000-   1 2.38   2 2.38  10 2.38
  37  0.146  0.000  0.000-   3 2.38   6 2.38   9 2.38
  38  0.646  0.667  0.000-   4 2.38   2 2.38   8 2.38
  39  0.896  0.000  0.000-   1 2.38   4 2.38   9 2.38
  40  0.896  0.333  0.000-   1 2.38   2 2.38  11 2.38
  41  0.146  0.333  0.000-   3 2.38   5 2.38  11 2.38
  42  0.396  0.667  0.000-   6 2.38   5 2.38   8 2.38
  43  0.396  0.000  0.000-   3 2.38   6 2.38   7 2.38
  44  0.646  0.000  0.000-   1 2.38   4 2.38   7 2.38
  45  0.396  0.333  0.000-   3 2.38   5 2.38  10 2.38
  46  0.896  0.667  0.000-   4 2.38   2 2.38  12 2.38
  47  0.146  0.667  0.000-   6 2.38   5 2.38  12 2.38
  48  0.396  0.833  0.079-  18 2.37   8 2.38   7 2.38   6 2.38
  49  0.646  0.833  0.079-   8 2.38   7 2.38   4 2.38  14 2.40
  50  0.396  0.167  0.079-  15 2.38  10 2.38   7 2.38   3 2.38
  51  0.146  0.167  0.079-  11 2.38   9 2.38   3 2.38  15 2.39
  52  0.896  0.167  0.079-  13 2.38  11 2.38   9 2.38   1 2.38
  53  0.896  0.833  0.079-  12 2.38   9 2.38   4 2.38  14 2.39
  54  0.646  0.167  0.079-  10 2.38   7 2.38   1 2.38  13 2.39
  55  0.146  0.833  0.079-  12 2.38   9 2.38   6 2.38  18 2.39
  56  0.396  0.500  0.079-   8 2.38  10 2.38   5 2.38  17 2.39
  57  0.146  0.500  0.079-  11 2.38  12 2.38   5 2.38  17 2.40
  58  0.896  0.500  0.079-  16 2.36  12 2.38  11 2.38   2 2.38
  59  0.646  0.500  0.079-  16 2.37  10 2.38   8 2.38   2 2.38
  60  0.648  0.999  0.157-  23 2.34  14 2.37  13 2.39   7 2.39
  61  0.397  0.666  0.157-  17 2.36  20 2.36   8 2.37  18 2.38
  62  0.647  0.669  0.157-  14 2.35  20 2.37   8 2.38  16 2.39
  63  0.897  0.667  0.157-  12 2.37  19 2.37  14 2.37  16 2.38
  64  0.147  0.000  0.157-  22 2.34  15 2.37   9 2.38  18 2.38
  65  0.897  0.997  0.157-  22 2.34  14 2.36   9 2.38  13 2.40
  66  0.397  0.001  0.156-   7 2.35  15 2.36  23 2.37  18 2.38
  67  0.147  0.666  0.157-  19 2.34  17 2.37  12 2.38  18 2.39
  68  0.396  0.334  0.157-  24 2.33  10 2.37  17 2.37  15 2.38
  69  0.897  0.334  0.157-  21 2.36  11 2.37  16 2.38  13 2.38
  70  0.647  0.333  0.157-  24 2.36  10 2.37  13 2.37  16 2.38
  71  0.148  0.334  0.157-  21 2.32  17 2.37  15 2.38  11 2.38
  72  0.649  0.167  0.235-  13 2.34  23 2.37  26 2.40  24 2.41
  73  0.648  0.833  0.238-  30 2.38  20 2.38  23 2.40  14 2.41
  74  0.398  0.836  0.233-  18 2.33  23 2.36  20 2.40  28 2.43
  75  0.897  0.502  0.235-  25 2.31  19 2.36  16 2.38  21 2.43
  76  0.147  0.833  0.235-  18 2.36  19 2.37  22 2.37  28 2.43
  77  0.648  0.501  0.233-  16 2.33  25 2.36  20 2.38  24 2.41
  78  0.397  0.165  0.234-  15 2.34  23 2.35  24 2.37  29 2.47
  79  0.898  0.164  0.234-  13 2.35  22 2.36  26 2.40  21 2.42
  80  0.397  0.500  0.236-  24 2.36  17 2.37  20 2.38  27 2.46
  81  0.147  0.501  0.236-  19 2.35  21 2.37  17 2.37  27 2.48
  82  0.148  0.167  0.236-  21 2.34  15 2.37  22 2.40  29 2.43
  83  0.897  0.828  0.237-  19 2.34  14 2.39  22 2.42  30 2.43
  84  0.648  0.342  0.311- 108 2.02  25 2.28  24 2.37  26 2.47
  85  0.898  0.998  0.312-  31 2.27  22 2.36  30 2.39  26 2.39
  86  0.149  0.671  0.315-  33 2.23  28 2.36  27 2.40  19 2.42
  87  0.390  0.331  0.313- 108 2.02  29 2.31  27 2.38  24 2.42
  88  0.650  0.005  0.316-  32 2.27  26 2.33  30 2.42  23 2.46
  89  0.648  0.656  0.316-  25 2.31  34 2.33  20 2.44  30 2.45
  90  0.399  0.997  0.312-  32 2.26  28 2.33  23 2.35  29 2.42
[...]
  94  0.147  0.333  0.315-  35 2.26  29 2.38  21 2.42  27 2.42
  95  0.148  1.000  0.312-  31 2.24  29 2.38  22 2.38  28 2.38
  96  0.641  0.837  0.390-  32 2.24  30 2.28  34 2.38
  97  0.144  0.838  0.392-  33 2.20  31 2.32  28 2.40
  98  0.400  0.838  0.392-  32 2.21  28 2.35  34 2.36
  99  0.408  0.151  0.395- 108 2.01  32 2.24  29 2.43
 100  0.141  0.163  0.391-  31 2.28  29 2.34  35 2.34
 101  0.905  0.837  0.391-  33 2.25  31 2.33  30 2.34
 102  0.904  0.161  0.388-  35 2.26  31 2.28  26 2.32
 103  0.668  0.209  0.401- 108 2.00 109 2.22  26 2.48
 104  0.378  0.534  0.391-  27 2.12  34 2.20
 105  0.832  0.430  0.396- 109 2.02  25 2.34  35 2.36
 106  0.647  0.560  0.432- 109 2.00  34 2.16
 107  0.096  0.504  0.392-  33 2.22  35 2.28
 108  0.525  0.255  0.356- 103 2.00  99 2.01  84 2.02  87 2.02 109 2.88  26 3.10  29 3.11  24 3.16
                            32 3.17
 109  0.670  0.389  0.430- 110 1.84 106 2.00 105 2.02 103 2.22 108 2.88
 110  0.530  0.364  0.468- 111 1.16 109 1.84
 111  0.444  0.353  0.495- 110 1.16

IMPORTANT INFORMATION: All symmetrisations will be switched off!
NOSYMM: (Re-)initialisation of all symmetry stuff for point group C_1.

 KPOINTS: CeO2-111-3x3-9layers         ! Comment

Automatic generation of k-mesh.
Space group operators:
 irot       det(A)        alpha          n_x          n_y          n_z        tau_x        tau_y        tau_z
    1     1.000000     0.000000     1.000000     0.000000     0.000000     0.000000     0.000000     0.000000

 Subroutine IBZKPT returns following result:

 Found      1 irreducible k-points:

 Following reciprocal coordinates:
            Coordinates               Weight
  0.000000  0.000000  0.000000      1.000000

 Following cartesian coordinates:
            Coordinates               Weight
  0.000000  0.000000  0.000000      1.000000

 I would recommend the setting:
   dimension x,y,z NGX =    72 NGY =   76 NGZ =  161
 SYSTEM =  unknown system
 POSCAR =  CeO2-110-l3-p23:

 Startparameter for this run:
   NWRITE =      2    write-flag & timer
   PREC   = accura    normal or accurate (medium, high low for compatibility)
   ISTART =      1    job   : 0-new  1-cont  2-samecut
[...]
   -.622E+01 0.398E+02 -.309E+04   0.654E+01 -.389E+02 0.308E+04   -.325E+00 -.907E+00 0.572E+01   0.740E-02 0.756E-02 -.446E-02
   -.466E+02 0.106E+02 -.310E+04   0.440E+02 -.129E+02 0.309E+04   0.259E+01 0.230E+01 0.533E+01   -.761E-02 0.121E-01 0.142E-02
   0.294E+02 0.804E+02 -.311E+04   -.276E+02 -.780E+02 0.311E+04   -.181E+01 -.240E+01 0.595E+01   0.537E-02 -.619E-02 -.485E-02
   0.436E+02 -.496E+02 -.298E+04   -.428E+02 0.464E+02 0.298E+04   -.893E+00 0.329E+01 0.217E+01   -.224E-02 0.195E-01 -.116E-01
   -.135E+03 -.607E+02 -.306E+04   0.134E+03 0.601E+02 0.305E+04   0.248E+00 0.538E+00 0.527E+01   0.511E-02 -.427E-02 0.138E-01
   0.680E+02 -.223E+00 0.161E+04   -.740E+02 0.212E+00 -.162E+04   0.721E+01 0.159E-01 0.507E+01   -.390E-02 0.306E-02 0.408E-03
   0.686E+02 0.563E+00 0.161E+04   -.747E+02 -.561E+00 -.162E+04   0.717E+01 -.495E-02 0.508E+01   -.224E-02 0.399E-03 0.142E-02
   0.680E+02 -.627E+00 0.161E+04   -.740E+02 0.645E+00 -.162E+04   0.719E+01 -.353E-01 0.508E+01   -.114E-02 0.361E-03 0.268E-03
   -.681E+02 0.703E+00 0.161E+04   0.742E+02 -.712E+00 -.162E+04   -.717E+01 0.248E-01 0.509E+01   0.350E-02 -.347E-02 0.866E-03
   -.687E+02 -.121E+00 0.161E+04   0.748E+02 0.114E+00 -.162E+04   -.719E+01 0.771E-02 0.511E+01   0.386E-02 0.320E-02 0.667E-03
   0.682E+02 -.568E+00 0.161E+04   -.742E+02 0.575E+00 -.162E+04   0.716E+01 -.156E-01 0.506E+01   -.165E-02 0.370E-03 0.564E-03
   -.677E+02 -.335E-01 0.161E+04   0.737E+02 0.243E-01 -.162E+04   -.717E+01 0.205E-01 0.509E+01   0.175E-02 -.766E-03 0.868E-03
   -.680E+02 0.712E+00 0.161E+04   0.740E+02 -.707E+00 -.162E+04   -.719E+01 -.898E-02 0.508E+01   0.241E-02 0.178E-03 0.140E-02
   0.675E+02 0.867E+00 0.161E+04   -.735E+02 -.874E+00 -.162E+04   0.721E+01 0.194E-01 0.503E+01   -.370E-02 -.349E-02 0.524E-03
   -.674E+02 -.673E+00 0.161E+04   0.734E+02 0.678E+00 -.162E+04   -.718E+01 -.105E-01 0.506E+01   0.170E-02 0.431E-03 0.395E-03
   -.685E+02 -.592E+00 0.161E+04   0.745E+02 0.611E+00 -.162E+04   -.719E+01 -.361E-01 0.509E+01   0.100E-02 0.190E-03 0.407E-03
   0.682E+02 -.631E-02 0.161E+04   -.742E+02 -.300E-02 -.162E+04   0.718E+01 0.211E-01 0.505E+01   -.153E-02 -.859E-03 0.437E-03
   -.539E+01 0.260E+01 0.994E+03   0.600E+01 -.258E+01 -.994E+03   -.956E+00 -.486E-01 -.737E+00   0.187E-02 0.230E-04 0.218E-02
   0.255E+01 0.113E+00 0.990E+03   -.296E+01 -.604E-01 -.989E+03   0.794E+00 -.507E-01 -.103E+01   -.230E-02 -.188E-02 -.666E-03
   -.395E+01 -.100E+01 0.997E+03   0.450E+01 0.996E+00 -.996E+03   -.881E+00 0.437E-01 -.818E+00   -.208E-03 -.517E-03 -.203E-03
   0.568E+01 -.547E+00 0.992E+03   -.612E+01 0.573E+00 -.992E+03   0.773E+00 -.234E-01 -.992E+00   -.137E-02 -.162E-02 0.341E-02
   -.587E+01 0.165E+01 0.993E+03   0.641E+01 -.161E+01 -.993E+03   -.893E+00 -.690E-01 -.719E+00   0.452E-02 -.594E-03 0.443E-02
   -.365E+01 0.473E+00 0.990E+03   0.410E+01 -.420E+00 -.990E+03   -.825E+00 -.744E-01 -.904E+00   0.240E-02 -.994E-03 -.144E-02
   0.347E+01 0.233E+01 0.994E+03   -.400E+01 -.230E+01 -.994E+03   0.900E+00 -.812E-01 -.917E+00   -.287E-02 0.100E-02 0.116E-02
   0.583E+01 0.203E+01 0.991E+03   -.636E+01 -.204E+01 -.990E+03   0.880E+00 0.901E-02 -.980E+00   -.165E-02 0.102E-02 0.139E-02
   -.216E+01 -.179E+01 0.992E+03   0.256E+01 0.174E+01 -.991E+03   -.728E+00 0.747E-01 -.898E+00   -.259E-03 0.194E-02 -.182E-02
   0.305E+01 -.129E+01 0.989E+03   -.338E+01 0.125E+01 -.988E+03   0.678E+00 0.590E-01 -.109E+01   -.916E-03 0.731E-03 0.152E-02
   -.801E+01 -.158E+01 0.994E+03   0.875E+01 0.158E+01 -.994E+03   -.110E+01 -.108E-01 -.736E+00   0.146E-02 0.188E-02 0.771E-03
   0.657E+01 -.286E+01 0.994E+03   -.729E+01 0.282E+01 -.993E+03   0.108E+01 0.738E-01 -.737E+00   0.589E-04 0.222E-02 -.115E-02
   -.617E+01 0.792E+01 0.360E+03   0.651E+01 -.790E+01 -.360E+03   -.340E+00 -.938E-02 0.674E+00   -.594E-02 -.230E-02 0.868E-02
[...]
   0.101E+03 0.162E+02 -.161E+04   -.108E+03 -.182E+02 0.161E+04   0.699E+01 0.203E+01 -.733E+01   -.387E-03 0.112E-01 0.621E-02
   0.146E+03 0.141E+02 -.164E+04   -.160E+03 -.162E+02 0.165E+04   0.134E+02 0.206E+01 -.157E+02   0.101E-01 -.344E-02 0.130E-01
   -.898E+02 -.849E+01 -.161E+04   0.955E+02 0.932E+01 0.162E+04   -.566E+01 -.826E+00 -.761E+01   -.614E-03 -.241E-02 0.324E-02
   0.844E+02 -.157E+01 -.160E+04   -.905E+02 0.260E+01 0.161E+04   0.604E+01 -.105E+01 -.728E+01   0.681E-03 0.150E-01 0.173E-02
   0.388E+02 0.594E+02 -.158E+04   -.449E+02 -.597E+02 0.159E+04   0.611E+01 0.358E+00 -.752E+01   0.920E-02 0.460E-02 0.579E-03
   -.873E+02 0.163E+03 -.162E+04   0.101E+03 -.176E+03 0.163E+04   -.135E+02 0.134E+02 -.121E+02   -.125E-01 0.186E-02 0.948E-02
   0.793E+02 0.546E+02 -.157E+04   -.801E+02 -.609E+02 0.158E+04   0.834E+00 0.632E+01 -.109E+02   -.778E-02 0.373E-02 0.937E-02
   -.121E+03 -.990E+02 -.154E+04   0.131E+03 0.105E+03 0.154E+04   -.995E+01 -.596E+01 -.194E+01   0.228E-01 -.141E-01 0.268E-01
   -.824E+02 -.146E+03 -.163E+04   0.880E+02 0.160E+03 0.164E+04   -.561E+01 -.137E+02 -.634E+01   -.463E-02 0.147E-01 0.281E-01
   -.626E+02 -.293E+01 -.156E+04   0.667E+02 0.188E+01 0.156E+04   -.417E+01 0.109E+01 -.396E+01   -.190E-01 -.316E-01 0.117E-01
   0.112E+03 -.321E+02 -.206E+04   -.112E+03 0.295E+02 0.206E+04   -.303E+00 0.263E+01 0.350E+00   0.329E-02 -.317E-01 0.280E-01
   -.942E+02 0.601E+01 -.265E+04   0.905E+02 -.419E+01 0.265E+04   0.369E+01 -.177E+01 -.328E+01   0.286E-01 -.486E-01 0.466E-01
   -.305E+02 -.152E+01 -.987E+03   0.429E+02 0.332E+01 0.978E+03   -.124E+02 -.180E+01 0.897E+01   -.430E-02 -.126E-01 0.527E-02
   0.246E+03 0.335E+02 -.157E+04   -.296E+03 -.406E+02 0.160E+04   0.497E+02 0.706E+01 -.346E+02   0.351E-02 -.311E-01 -.270E-02
   -.217E+02 0.517E+01 0.566E+02   -.171E-12 -.149E-12 -.864E-11   0.216E+02 -.507E+01 -.566E+02   0.596E-01 -.100E+00 0.469E-01

 POSITION                                       TOTAL-FORCE (eV/Angst)
      8.46781      1.94101      0.00000        -0.027260     -0.012799      2.495604
      8.46781      5.82303      0.00000        -0.010862      0.008033      2.452185
      2.97781      1.94101      0.00000        -0.003289      0.008257      2.516273
      8.46781      9.70504      0.00000        -0.014723      0.004664      2.549122
      2.97781      5.82303      0.00000        -0.011828     -0.004432      2.554474
      2.97781      9.70504      0.00000        -0.012663     -0.003951      2.496032
      5.72281      0.00000      1.94101         0.064402     -0.018755     -0.937718
      5.72281      7.76403      1.94101         0.015691      0.033622     -0.940478
      0.23281      0.00000      1.94101         0.042177     -0.057764     -0.990703
      5.72281      3.88202      1.94101         0.005298     -0.008659     -0.976036
      0.23281      3.88202      1.94101         0.096437      0.022986     -0.968856
      0.23281      7.76403      1.94101         0.077496      0.015758     -0.938640
      8.47608      1.94011      3.88652        -0.006012      0.000366      0.000083
      8.47416      9.69273      3.90239         0.004557     -0.001718     -0.002519
      2.99108      1.93506      3.88860         0.001412      0.002172      0.000282
      8.47330      5.82357      3.86836        -0.000153     -0.003141     -0.003567
      2.99083      5.83311      3.90488         0.001607     -0.007826      0.000186
      2.99265      9.70790      3.88303        -0.001827     -0.002820      0.005230
      0.26072      7.75723      5.79153         0.008430      0.000097      0.003757
      5.73008      7.76602      5.80016        -0.006259     -0.002644      0.001073
      0.29085      3.87389      5.76871         0.002968      0.000457      0.012654
      0.24378     11.63118      5.76982        -0.003642     -0.000599      0.004943
      5.74165      0.02198      5.78657        -0.002844      0.000740      0.005705
      5.70528      3.88358      5.76680        -0.010370     -0.005702     -0.008855
      8.49501      5.79547      7.68266        -0.015804     -0.000278      0.004864
      8.50672      1.94882      7.76437        -0.011058      0.007169      0.014945
      3.00730      5.85758      7.89704        -0.003543     -0.001585     -0.004247
      3.02743      9.71787      7.77900        -0.000665     -0.004182      0.009675
      2.98918      1.94156      7.83072         0.005928     -0.005339      0.008014
      8.46192      9.68555      7.84990        -0.003889      0.002663      0.008456
      0.26888      0.02079      9.49503         0.000262      0.003113      0.004734
      5.69241     11.54017      9.54767        -0.012228      0.012226     -0.000018
      0.31511      7.95701      9.57574        -0.000994      0.008842      0.009967
      5.68447      7.79123      9.63442        -0.021738     -0.001373      0.012537
      0.15766      3.77950      9.52249        -0.011044     -0.002145      0.007143
      7.09531      3.88202      0.00000         1.152108      0.007230     -0.465202
      1.60531      0.00000      0.00000         1.134078     -0.002476     -0.456866
      7.09531      7.76403      0.00000         1.141681     -0.017119     -0.460408
      9.84031      0.00000      0.00000        -1.136355      0.011915     -0.454061
      9.84031      3.88202      0.00000        -1.142592      0.003453     -0.449370
      1.60531      3.88202      0.00000         1.131158     -0.007818     -0.461481
      4.35031      7.76403      0.00000        -1.135628      0.010508     -0.454293
      4.35031      0.00000      0.00000        -1.145193     -0.004488     -0.459307
      7.09531      0.00000      0.00000         1.150767      0.009361     -0.475751
      4.35031      3.88202      0.00000        -1.140968     -0.005468     -0.464023
      9.84031      7.76403      0.00000        -1.145938     -0.017239     -0.458157
      1.60531      7.76403      0.00000         1.140556      0.010919     -0.466729
      4.35031      9.70504      1.94101        -0.339099     -0.030078     -0.347663
      7.09531      9.70504      1.94101         0.379494      0.000504     -0.326393
      4.35031      1.94101      1.94101        -0.336315      0.037622     -0.364324
      1.60531      1.94101      1.94101         0.332949      0.000607     -0.326883
      9.84031      1.94101      1.94101        -0.340363     -0.038072     -0.286906
      9.84031      9.70504      1.94101        -0.376045     -0.022435     -0.319599
      7.09531      1.94101      1.94101         0.365805     -0.047941     -0.319118
      1.60531      9.70504      1.94101         0.354912     -0.004610     -0.332773
      4.35031      5.82303      1.94101        -0.338455      0.020513     -0.325315
      1.60531      5.82303      1.94101         0.353168      0.016546     -0.306174
      9.84031      5.82303      1.94101        -0.355364     -0.004988     -0.376805
      7.09531      5.82303      1.94101         0.359982      0.038749     -0.330876
      7.11088     11.62881      3.88665         0.000073      0.004920      0.000283
[...]
      1.58026      9.75763      9.69052        -0.009021     -0.006212      0.003580
      4.39452      9.76085      9.69540        -0.010864      0.000778      0.013496
      4.47506      1.76219      9.74985         0.003393      0.000878      0.001544
      1.55073      1.90048      9.67155         0.001910     -0.002980     -0.000359
      9.93652      9.74542      9.66842        -0.009477      0.002054      0.012170
      9.93009      1.87336      9.59123        -0.006544      0.005891      0.005596
      7.33237      2.43236      9.89931        -0.006790      0.012131     -0.012207
      4.14584      6.21451      9.65459        -0.008122      0.007023      0.016054
      9.13723      5.00416      9.79108        -0.012960      0.009587     -0.014195
      7.10079      6.52058     10.66092        -0.006480      0.012653      0.007612
      1.05483      5.86471      9.67514        -0.019127      0.003325      0.010407
      5.76311      2.97348      8.78871        -0.011924     -0.001901      0.005441
      7.35578      4.53485     10.61475         0.027336     -0.001398      0.009634
      5.81432      4.24340     11.56935        -0.013868     -0.004240     -0.040804
      4.87690      4.10779     12.23861        -0.009313     -0.020566      0.032022
    total drift:                                0.010126      0.001470      0.101495

  FREE ENERGIE OF THE ION-ELECTRON SYSTEM (eV)
  free  energy   TOTEN  =      -899.54071437 eV

  energy  without entropy=     -899.54071437  energy(sigma->0) =     -899.54071437

 stress matrix after NEB project (eV)
    -72.17066      1.12643     -1.86001
      1.12644   -116.01872      0.24256
     -1.86004      0.24255    -66.87467
  FORCES: max atom, RMS     0.043304    0.011051
  FORCE total and by dimension    0.116435    0.040804
  Stress total and by dimension  152.153688  116.018722

 reached required accuracy - stopping structural energy minimisation
 writing wavefunctions

 total charge

[...]

 magnetization (x)

# of ion     s       p       d       f       tot
  1        0.000  -0.000   0.000   0.000  -0.000
  2        0.000   0.000  -0.000  -0.000   0.000
  3        0.000  -0.000  -0.000  -0.000  -0.000
  4       -0.000  -0.000  -0.000   0.000   0.000
  5       -0.000  -0.000   0.000  -0.000  -0.000
  6        0.000   0.000  -0.000  -0.000  -0.000
  7        0.000   0.000  -0.000  -0.000   0.000
  8       -0.000  -0.000  -0.000  -0.000  -0.000
  9       -0.000  -0.000   0.000  -0.000  -0.000
 10        0.000   0.000   0.000  -0.000   0.000
 11       -0.000   0.000   0.000  -0.000  -0.000
 12       -0.000  -0.000  -0.000  -0.000  -0.000
 13        0.000   0.000   0.000  -0.000   0.000
 14       -0.000  -0.000   0.000   0.000  -0.000
 15        0.000  -0.000   0.000   0.000   0.000
 16       -0.000   0.000   0.000   0.000   0.000
 17       -0.000  -0.000  -0.000   0.000  -0.000
 18       -0.000  -0.000   0.000   0.000  -0.000
 19       -0.000  -0.000   0.000   0.000  -0.000
 20        0.000   0.000   0.000   0.000   0.000
 21        0.000  -0.000  -0.000   0.000   0.000
 22        0.000   0.000  -0.000   0.000   0.000
 23        0.000   0.000  -0.000   0.000   0.000
 24       -0.000   0.000   0.000  -0.000  -0.000
 25       -0.000   0.000   0.000   0.000   0.000
 26        0.000   0.000  -0.000  -0.000   0.000
 27        0.000   0.000   0.000   0.000   0.000
 28       -0.000   0.000   0.000   0.000   0.000
 29        0.000   0.000   0.000  -0.000  -0.000
 30        0.000  -0.000   0.000  -0.000   0.000
 31        0.000   0.000  -0.000  -0.000   0.000
 32        0.000   0.000  -0.000  -0.000   0.000
 33        0.000   0.000   0.000  -0.000   0.000
 34        0.000  -0.000  -0.000  -0.000  -0.000
 35        0.000  -0.000  -0.000   0.000   0.000
 36       -0.000  -0.000   0.000   0.000  -0.000
 37       -0.000  -0.000   0.000   0.000  -0.000
 38        0.000   0.000   0.000   0.000   0.000
 39       -0.000   0.000   0.000   0.000  -0.000
 40       -0.000   0.000   0.000   0.000  -0.000
 41       -0.000   0.000   0.000   0.000   0.000
 42       -0.000   0.000   0.000   0.000   0.000
 43       -0.000   0.000   0.000   0.000   0.000
 44        0.000   0.000   0.000   0.000   0.000
 45        0.000  -0.000   0.000   0.000   0.000
 46        0.000   0.000   0.000   0.000   0.000
 47        0.000   0.000   0.000   0.000   0.000
 48       -0.000  -0.000   0.000   0.000  -0.000
 49       -0.000   0.000   0.000   0.000  -0.000
 50        0.000   0.000   0.000   0.000   0.000
 51       -0.000  -0.000   0.000   0.000  -0.000
 52        0.000  -0.000   0.000   0.000  -0.000
 53        0.000   0.000   0.000   0.000   0.000
 54        0.000  -0.000   0.000   0.000  -0.000
 55        0.000  -0.000   0.000   0.000  -0.000
 56        0.000   0.000   0.000   0.000   0.000
 57        0.000   0.000   0.000   0.000   0.000
 58       -0.000  -0.000   0.000   0.000  -0.000
 59       -0.000  -0.000   0.000   0.000  -0.000
 60        0.000  -0.000   0.000   0.000  -0.000
[...]
 97       -0.000  -0.000   0.000   0.000  -0.000
 98       -0.000   0.000   0.000   0.000  -0.000
 99        0.000   0.000   0.000   0.000   0.000
100        0.000  -0.000   0.000   0.000  -0.000
101       -0.000   0.000   0.000   0.000   0.000
102       -0.000  -0.000   0.000   0.000  -0.000
103        0.000  -0.000   0.000   0.000   0.000
104        0.000  -0.000   0.000   0.000   0.000
105       -0.000  -0.000   0.000   0.000  -0.000
106       -0.000   0.000   0.000   0.000  -0.000
107       -0.000  -0.000   0.000   0.000  -0.000
108       -0.000  -0.000  -0.000   0.000  -0.000
109       -0.000   0.000   0.000   0.000   0.000
110        0.000  -0.000   0.000   0.000  -0.000
111       -0.000   0.000   0.000   0.000   0.000
tot        0.000  -0.000   0.000   0.000   0.000