 vasp.5.3.5 31Mar14 (build May 27 2014 14:39:49) gamma-only

 executed on           LinuxIFORT date 2020.11.05  10:26:20

 INCAR:
 POTCAR:    PAW_PBE Ce 23Dec2003
 POTCAR:    PAW_PBE O 08Apr2002
 POTCAR:    PAW_PBE Pt 04Feb2005
 POTCAR:    PAW_PBE O 08Apr2002
 POTCAR:    PAW_PBE C 08Apr2002
 POTCAR:    PAW_PBE O 08Apr2002
 POTCAR:    PAW_PBE Ce 23Dec2003
   VRHFIN =Ce : [core= Kr 4d10]

   TITEL  = PAW_PBE Ce 23Dec2003
   POMASS =  140.115; ZVAL   =   12.000    mass and valenz
   ENMAX  =  273.042; ENMIN  =  204.781 eV

 POTCAR:    PAW_PBE O 08Apr2002
   VRHFIN =O: s2p4

   TITEL  = PAW_PBE O 08Apr2002
   POMASS =   16.000; ZVAL   =    6.000    mass and valenz
   ENMAX  =  400.000; ENMIN  =  300.000 eV

 POTCAR:    PAW_PBE Pt 04Feb2005
   VRHFIN =Pt: s1d9

   TITEL  = PAW_PBE Pt 04Feb2005
   POMASS =  195.080; ZVAL   =   10.000    mass and valenz
   ENMAX  =  230.283; ENMIN  =  172.712 eV

[...]

 POTCAR:    PAW_PBE C 08Apr2002
   VRHFIN =C: s2p2

[...]

 POTCAR:    PAW_PBE O 08Apr2002
   VRHFIN =O: s2p4

   TITEL  = PAW_PBE O 08Apr2002
   POMASS =   16.000; ZVAL   =    6.000    mass and valenz
   ENMAX  =  400.000; ENMIN  =  300.000 eV

 Optimization of the real space projectors (new method)

 maximal supplied QI-value         = 13.98
 optimisation between [QCUT,QGAM] = [ 10.21, 20.42] = [ 29.18,116.73] Ry
 Optimized for a Real-space Cutoff    1.65 Angstroem

   l    n(q)    QCUT    max X(q) W(low)/X(q) W(high)/X(q)  e(spline)
   0     10    10.208     8.553    0.18E-04    0.75E-05    0.12E-06
   0     10    10.208     8.106    0.26E-04    0.16E-04    0.24E-06
   1     10    10.208     4.160    0.93E-05    0.96E-06    0.75E-07
   1     10    10.208     3.597    0.23E-04    0.26E-04    0.15E-06
   2      9    10.208     8.183    0.11E-03    0.28E-03    0.51E-06
   2      9    10.208     6.077    0.74E-04    0.19E-03    0.37E-06
   3      9    10.208   116.013    0.19E-03    0.98E-05    0.18E-06
   3      9    10.208   108.937    0.19E-03    0.10E-04    0.18E-06
 Optimization of the real space projectors (new method)

[...]

   l    n(q)    QCUT    max X(q) W(low)/X(q) W(high)/X(q)  e(spline)
   0      9    10.053   115.676    0.19E-03    0.21E-03    0.38E-06
   0      9    10.053    87.132    0.19E-03    0.21E-03    0.38E-06
   1      9    10.053     4.429    0.87E-04    0.11E-03    0.39E-06
   1      9    10.053     2.733    0.59E-04    0.62E-04    0.43E-06
 Optimization of the real space projectors (new method)

 maximal supplied QI-value         = 24.76
 optimisation between [QCUT,QGAM] = [ 10.15, 20.30] = [ 28.85,115.39] Ry
 Optimized for a Real-space Cutoff    1.51 Angstroem

   l    n(q)    QCUT    max X(q) W(low)/X(q) W(high)/X(q)  e(spline)
   0      9    10.150    20.381    0.17E-03    0.18E-03    0.41E-06
   0      9    10.150    15.268    0.18E-03    0.20E-03    0.43E-06
   1      9    10.150     5.964    0.16E-03    0.20E-03    0.36E-06
   1      9    10.150     5.382    0.13E-03    0.16E-03    0.33E-06
  PAW_PBE Ce 23Dec2003                  :
  PAW_PBE O 08Apr2002                   :
  PAW_PBE Pt 04Feb2005                  :
  PAW_PBE O 08Apr2002                   :
  PAW_PBE C 08Apr2002                   :
  PAW_PBE O 08Apr2002                   :

 POSCAR: CeO2-110-l3-p23:
  positions in direct lattice
  velocities in cartesian coordinates
 exchange correlation table for  LEXCH =        8
   RHO(1)=    0.500       N(1)  =     2000
   RHO(2)=  100.500       N(2)  =     4000

 VTST: version 3.1, (03/28/14)

 CHAIN: initializing optimizer

 OPT: Using VASP QUASI-newton optimizer
 CHAIN: Read ICHAIN            0

 POSCAR: CeO2-110-l3-p23:
  positions in direct lattice
  velocities in cartesian coordinates

 ion  position               nearest neighbor table
   1  0.771  0.167  0.000-  36 2.38  40 2.38  39 2.38  44 2.38  52 2.38  54 2.38
   2  0.771  0.500  0.000-  36 2.38  38 2.38  40 2.38  46 2.38  58 2.38  59 2.38
   3  0.271  0.167  0.000-  41 2.38  45 2.38  43 2.38  37 2.38  50 2.38  51 2.38
   4  0.771  0.833  0.000-  38 2.38  46 2.38  44 2.38  39 2.38  49 2.38  53 2.38
   5  0.271  0.500  0.000-  41 2.38  42 2.38  45 2.38  47 2.38  56 2.38  57 2.38
   6  0.271  0.833  0.000-  42 2.38  47 2.38  43 2.38  37 2.38  48 2.38  55 2.38
   7  0.521  0.000  0.079-  66 2.37  49 2.38  50 2.38  54 2.38  48 2.38  44 2.38  43 2.38  60 2.39

   8  0.521  0.667  0.079-  48 2.38  49 2.38  56 2.38  59 2.38  38 2.38  42 2.38  61 2.38  62 2.39

[...]

  23  0.523  0.001  0.235-  60 2.35  78 2.35  66 2.36  90 2.36  72 2.36  73 2.38  74 2.41  88 2.46

  24  0.519  0.334  0.233-  68 2.33  70 2.35  80 2.36  84 2.37  78 2.38  72 2.41  77 2.42  87 2.42
                           107 3.17
  25  0.775  0.498  0.312-  84 2.29  75 2.31 104 2.32  91 2.34  89 2.34  77 2.36  93 2.39 108 3.30

[...]

  31  0.027  0.002  0.385-  95 2.24 100 2.26 102 2.28  85 2.28 101 2.32  97 2.35
  32  0.521  0.996  0.388-  98 2.20  99 2.22  96 2.26  88 2.27  90 2.27 107 3.14
  33  0.029  0.682  0.388-  97 2.21  86 2.23 106 2.23  91 2.23 101 2.24
  34  0.533  0.681  0.393- 105 2.12  96 2.27  89 2.30  98 2.32  92 2.34 109 2.44
  35  0.014  0.324  0.386- 102 2.25  94 2.25 106 2.29  93 2.29 104 2.34 100 2.38
  36  0.646  0.333  0.000-   1 2.38   2 2.38  10 2.38
  37  0.146  0.000  0.000-   3 2.38   6 2.38   9 2.38
  38  0.646  0.667  0.000-   4 2.38   2 2.38   8 2.38
  39  0.896  0.000  0.000-   1 2.38   4 2.38   9 2.38
  40  0.896  0.333  0.000-   1 2.38   2 2.38  11 2.38
  41  0.146  0.333  0.000-   3 2.38   5 2.38  11 2.38
  42  0.396  0.667  0.000-   6 2.38   5 2.38   8 2.38
  43  0.396  0.000  0.000-   3 2.38   6 2.38   7 2.38
  44  0.646  0.000  0.000-   1 2.38   4 2.38   7 2.38
  45  0.396  0.333  0.000-   3 2.38   5 2.38  10 2.38
  46  0.896  0.667  0.000-   4 2.38   2 2.38  12 2.38
  47  0.146  0.667  0.000-   6 2.38   5 2.38  12 2.38
  48  0.396  0.833  0.079-   8 2.38   7 2.38   6 2.38  18 2.38
  49  0.646  0.833  0.079-   8 2.38   7 2.38   4 2.38  14 2.39
  50  0.396  0.167  0.079-  15 2.38  10 2.38   7 2.38   3 2.38
  51  0.146  0.167  0.079-  11 2.38   9 2.38   3 2.38  15 2.39
  52  0.896  0.167  0.079-  11 2.38   9 2.38   1 2.38  13 2.38
  53  0.896  0.833  0.079-  12 2.38   9 2.38   4 2.38  14 2.39
  54  0.646  0.167  0.079-  10 2.38   7 2.38   1 2.38  13 2.39
  55  0.146  0.833  0.079-  12 2.38   9 2.38   6 2.38  18 2.40
  56  0.396  0.500  0.079-   8 2.38  10 2.38   5 2.38  17 2.39
  57  0.146  0.500  0.079-  11 2.38  12 2.38   5 2.38  17 2.40
  58  0.896  0.500  0.079-  16 2.37  12 2.38  11 2.38   2 2.38
  59  0.646  0.500  0.079-  16 2.37  10 2.38   8 2.38   2 2.38
  60  0.647  0.998  0.157-  23 2.35  14 2.37  13 2.38   7 2.39
  61  0.397  0.667  0.157-  18 2.36  17 2.37   8 2.38  20 2.38
  62  0.647  0.669  0.158-  14 2.35  16 2.39  20 2.39   8 2.39
  63  0.897  0.667  0.157-  19 2.37  12 2.37  14 2.37  16 2.38
  64  0.147  1.000  0.157-  22 2.34  15 2.37   9 2.37  18 2.38
  65  0.897  0.997  0.157-  22 2.34  14 2.37   9 2.38  13 2.40
  66  0.398  0.999  0.157-  23 2.36   7 2.37  18 2.37  15 2.38
  67  0.147  0.667  0.157-  19 2.34  17 2.37  18 2.37  12 2.38
  68  0.396  0.333  0.157-  24 2.33  10 2.37  17 2.38  15 2.38
  69  0.897  0.334  0.157-  21 2.35  11 2.37  16 2.38  13 2.38
  70  0.647  0.334  0.157-  24 2.35  10 2.37  16 2.38  13 2.38
  71  0.148  0.333  0.157-  21 2.33  15 2.38  11 2.38  17 2.39
  72  0.648  0.166  0.235-  13 2.34  23 2.36  24 2.41  26 2.41
  73  0.648  0.834  0.239-  30 2.38  23 2.38  20 2.41  14 2.41
  74  0.398  0.832  0.236-  20 2.35  18 2.38  28 2.39  23 2.41
  75  0.896  0.502  0.235-  25 2.31  19 2.37  16 2.37  21 2.44
  76  0.148  0.833  0.235-  18 2.34  22 2.36  19 2.37  28 2.48
  77  0.648  0.502  0.234-  16 2.34  20 2.36  25 2.36  24 2.42
  78  0.397  0.165  0.235-  15 2.35  23 2.35  24 2.38  29 2.46
  79  0.898  0.164  0.234-  13 2.35  22 2.38  26 2.39  21 2.40
  80  0.399  0.501  0.235-  20 2.34  17 2.36  24 2.36  27 2.52
  81  0.144  0.500  0.235-  19 2.34  21 2.36  17 2.37  27 2.46
  82  0.148  0.165  0.235-  15 2.36  21 2.37  22 2.37  29 2.43
  83  0.898  0.828  0.237-  19 2.34  30 2.40  14 2.40  22 2.41
  84  0.649  0.342  0.310- 107 2.02  25 2.29  24 2.37  26 2.46
  85  0.900  0.999  0.312-  31 2.28  30 2.36  22 2.36  26 2.40
  86  0.146  0.675  0.315-  33 2.23  28 2.33  19 2.40  27 2.44
  87  0.392  0.329  0.313- 107 2.01  29 2.33  27 2.41  24 2.42
  88  0.651  0.006  0.317-  32 2.27  26 2.33  30 2.42  23 2.46
  89  0.651  0.661  0.317-  34 2.30  25 2.34  30 2.43  20 2.45
  90  0.400  0.997  0.313-  32 2.27  28 2.34  23 2.36  29 2.42
[...]
  93  0.900  0.331  0.309-  35 2.29  21 2.31  26 2.34  25 2.39
  94  0.142  0.326  0.315-  35 2.25  29 2.35  21 2.39  27 2.44
  95  0.150  0.997  0.313-  31 2.24  29 2.37  28 2.39  22 2.40
  96  0.648  0.843  0.392-  32 2.26  34 2.27  30 2.32
  97  0.147  0.836  0.394-  33 2.21  31 2.35  28 2.38
  98  0.407  0.842  0.395-  32 2.20  34 2.32  28 2.40
  99  0.408  0.154  0.394- 107 2.01  32 2.22  29 2.44
 100  0.143  0.161  0.392-  31 2.26  29 2.33  35 2.38
 101  0.907  0.837  0.391-  33 2.24  31 2.32  30 2.34
 102  0.906  0.161  0.389-  35 2.25  31 2.28  26 2.32
 103  0.671  0.212  0.401- 107 1.99 108 2.20  26 2.49
 104  0.839  0.436  0.396- 108 2.06  25 2.32  35 2.34
 105  0.650  0.563  0.432- 108 2.00  34 2.12
 106  0.099  0.503  0.392-  33 2.23  35 2.29
 107  0.527  0.258  0.357- 103 1.99  99 2.01  87 2.01  84 2.02 108 2.81  26 3.11  32 3.14  29 3.17
                            24 3.17
 108  0.670  0.393  0.427- 111 1.91 105 2.00 104 2.06 103 2.20 107 2.81  25 3.30
 109  0.393  0.521  0.406- 110 1.36  34 2.44
 110  0.387  0.439  0.445- 109 1.36 111 1.89
 111  0.528  0.362  0.470- 112 1.18 110 1.89 108 1.91
 112  0.494  0.311  0.508- 111 1.18

IMPORTANT INFORMATION: All symmetrisations will be switched off!
NOSYMM: (Re-)initialisation of all symmetry stuff for point group C_1.

 KPOINTS: CeO2-111-3x3-9layers         ! Comment

Automatic generation of k-mesh.
Space group operators:
 irot       det(A)        alpha          n_x          n_y          n_z        tau_x        tau_y        tau_z
    1     1.000000     0.000000     1.000000     0.000000     0.000000     0.000000     0.000000     0.000000

 Subroutine IBZKPT returns following result:

 Found      1 irreducible k-points:

 Following reciprocal coordinates:
            Coordinates               Weight
  0.000000  0.000000  0.000000      1.000000

 Following cartesian coordinates:
            Coordinates               Weight
  0.000000  0.000000  0.000000      1.000000

 I would recommend the setting:
   dimension x,y,z NGX =    72 NGY =   76 NGZ =  161
 SYSTEM =  unknown system
 POSCAR =  CeO2-110-l3-p23:

 Startparameter for this run:
   NWRITE =      2    write-flag & timer
   PREC   = accura    normal or accurate (medium, high low for compatibility)
   ISTART =      1    job   : 0-new  1-cont  2-samecut
   ICHARG =      0    charge: 1-file 2-atom 10-const
   ISPIN  =      2    spin polarized calculation?
   LNONCOLLINEAR =      F non collinear calculations
   LSORBIT =      F    spin-orbit coupling
   INIWAV =      1    electr: 0-lowe 1-rand  2-diag
   LASPH  =      T    aspherical Exc in radial PAW
   METAGGA=      F    non-selfconsistent MetaGGA calc.

[...]
   -.126E+03 -.490E+02 -.304E+04   0.126E+03 0.487E+02 0.303E+04   0.565E+00 0.332E+00 0.532E+01   0.229E-01 0.591E-02 0.383E-01
   0.681E+02 -.323E+00 0.161E+04   -.742E+02 0.319E+00 -.162E+04   0.719E+01 0.684E-02 0.509E+01   0.221E-03 -.241E-05 -.551E-02
   0.681E+02 0.817E+00 0.161E+04   -.741E+02 -.823E+00 -.162E+04   0.718E+01 0.113E-01 0.506E+01   -.189E-03 -.227E-03 -.513E-02
   0.683E+02 -.686E+00 0.161E+04   -.744E+02 0.700E+00 -.162E+04   0.718E+01 -.264E-01 0.509E+01   0.126E-03 0.253E-03 -.508E-02
   -.680E+02 0.839E+00 0.161E+04   0.740E+02 -.852E+00 -.162E+04   -.719E+01 0.259E-01 0.507E+01   -.436E-04 -.220E-03 -.491E-02
   -.684E+02 -.269E+00 0.161E+04   0.745E+02 0.269E+00 -.162E+04   -.720E+01 -.747E-03 0.509E+01   -.945E-04 -.490E-04 -.539E-02
   0.680E+02 -.635E+00 0.161E+04   -.740E+02 0.640E+00 -.162E+04   0.716E+01 -.109E-01 0.506E+01   -.264E-03 -.892E-04 -.572E-02
   -.679E+02 -.293E+00 0.161E+04   0.739E+02 0.291E+00 -.162E+04   -.715E+01 0.261E-02 0.510E+01   0.155E-03 0.319E-03 -.540E-02
   -.681E+02 0.962E+00 0.161E+04   0.741E+02 -.966E+00 -.162E+04   -.715E+01 0.768E-02 0.511E+01   0.722E-04 -.270E-03 -.530E-02
   0.680E+02 0.102E+01 0.161E+04   -.740E+02 -.103E+01 -.162E+04   0.717E+01 0.202E-01 0.508E+01   0.148E-03 -.249E-03 -.503E-02
   -.676E+02 -.662E+00 0.161E+04   0.737E+02 0.668E+00 -.162E+04   -.716E+01 -.127E-01 0.509E+01   0.900E-04 -.471E-04 -.590E-02
   -.682E+02 -.585E+00 0.161E+04   0.743E+02 0.600E+00 -.162E+04   -.720E+01 -.288E-01 0.507E+01   -.724E-04 0.265E-03 -.503E-02
   0.678E+02 -.187E+00 0.161E+04   -.739E+02 0.189E+00 -.162E+04   0.718E+01 -.234E-02 0.504E+01   -.235E-03 0.323E-03 -.533E-02
   -.499E+01 0.176E+01 0.995E+03   0.548E+01 -.173E+01 -.995E+03   -.828E+00 -.417E-01 -.866E+00   0.369E-03 0.129E-03 -.478E-02
   0.405E+01 0.857E+00 0.993E+03   -.449E+01 -.808E+00 -.993E+03   0.818E+00 -.559E-01 -.964E+00   0.297E-03 0.196E-03 -.444E-02
   -.438E+01 0.998E+00 0.999E+03   0.488E+01 -.912E+00 -.999E+03   -.828E+00 -.134E+00 -.774E+00   0.257E-03 -.538E-03 -.656E-02
   0.454E+01 -.122E+00 0.997E+03   -.499E+01 0.189E+00 -.997E+03   0.791E+00 -.875E-01 -.102E+01   -.797E-03 -.104E-02 -.599E-02
   -.503E+01 0.162E+01 0.998E+03   0.558E+01 -.158E+01 -.998E+03   -.902E+00 -.810E-01 -.737E+00   0.847E-04 -.599E-03 -.513E-02
   -.309E+01 0.678E+00 0.995E+03   0.356E+01 -.612E+00 -.994E+03   -.870E+00 -.940E-01 -.946E+00   -.689E-04 0.318E-03 -.400E-02
   0.434E+01 0.219E+01 0.998E+03   -.485E+01 -.215E+01 -.997E+03   0.860E+00 -.831E-01 -.868E+00   0.482E-03 -.681E-03 -.582E-02
   0.355E+01 0.183E+01 0.994E+03   -.398E+01 -.179E+01 -.993E+03   0.807E+00 -.710E-01 -.107E+01   -.566E-03 0.457E-03 -.487E-02
   -.298E+01 -.279E+01 0.995E+03   0.339E+01 0.274E+01 -.994E+03   -.739E+00 0.680E-01 -.861E+00   0.668E-03 0.720E-03 -.663E-02
   0.261E+01 -.151E+01 0.993E+03   -.298E+01 0.147E+01 -.992E+03   0.712E+00 0.478E-01 -.106E+01   -.822E-03 0.618E-03 -.665E-02
   -.665E+01 -.169E+01 0.998E+03   0.732E+01 0.165E+01 -.997E+03   -.104E+01 0.494E-01 -.801E+00   -.301E-03 0.517E-03 -.523E-02
   0.664E+01 -.349E+01 0.997E+03   -.729E+01 0.342E+01 -.996E+03   0.101E+01 0.124E+00 -.745E+00   0.492E-03 0.751E-03 -.551E-02
   -.231E+01 0.868E+01 0.368E+03   0.251E+01 -.863E+01 -.369E+03   -.205E+00 -.422E-01 0.588E+00   0.301E-02 -.310E-02 -.316E-02
[...]
   0.156E+03 0.366E+02 -.160E+04   -.170E+03 -.385E+02 0.162E+04   0.141E+02 0.183E+01 -.155E+02   -.287E-01 0.450E-02 0.458E-01
   -.812E+02 -.433E+01 -.160E+04   0.870E+02 0.583E+01 0.161E+04   -.576E+01 -.152E+01 -.781E+01   0.106E-02 0.779E-02 0.220E-01
   0.769E+02 -.426E+01 -.159E+04   -.830E+02 0.533E+01 0.160E+04   0.615E+01 -.107E+01 -.729E+01   0.577E-02 -.480E-02 0.116E-01
   0.370E+02 0.652E+02 -.157E+04   -.432E+02 -.658E+02 0.157E+04   0.619E+01 0.629E+00 -.741E+01   0.124E-01 -.102E-01 0.165E-01
   -.109E+03 0.176E+03 -.160E+04   0.124E+03 -.190E+03 0.161E+04   -.141E+02 0.137E+02 -.126E+02   0.597E-02 -.366E-01 0.232E-01
   -.124E+03 -.100E+03 -.153E+04   0.132E+03 0.106E+03 0.154E+04   -.853E+01 -.612E+01 -.360E+01   0.437E-01 0.123E-01 0.519E-02
   -.118E+03 -.149E+03 -.163E+04   0.124E+03 0.160E+03 0.164E+04   -.604E+01 -.118E+02 -.772E+01   -.451E-01 0.245E-01 0.466E-02
   -.519E+02 -.122E+02 -.154E+04   0.557E+02 0.110E+02 0.154E+04   -.395E+01 0.116E+01 -.426E+01   0.413E-01 0.329E-02 0.410E-01
   0.101E+03 -.450E+01 -.200E+04   -.100E+03 0.228E+01 0.200E+04   -.404E+00 0.217E+01 0.137E+00   -.296E-01 0.434E-01 0.549E-01
   -.147E+03 -.432E+01 -.260E+04   0.143E+03 0.571E+01 0.260E+04   0.371E+01 -.142E+01 -.285E+01   -.748E-01 0.337E-01 0.434E-01
   0.112E+03 -.137E+03 -.137E+04   -.113E+03 0.159E+03 0.135E+04   0.110E+01 -.214E+02 0.225E+02   -.126E-01 -.840E-01 0.171E+00
   0.210E+03 0.602E+02 -.165E+04   -.222E+03 -.845E+02 0.168E+04   0.126E+02 0.243E+02 -.265E+02   0.654E-04 0.239E-01 0.780E-02
   -.746E+01 -.437E+02 -.964E+03   0.145E+02 0.492E+02 0.954E+03   -.705E+01 -.547E+01 0.103E+02   -.770E-01 0.377E-01 0.797E-02
   0.985E+02 0.167E+03 -.162E+04   -.117E+03 -.197E+03 0.166E+04   0.185E+02 0.296E+02 -.467E+02   -.189E-01 0.571E-01 0.148E-02
   -.921E+01 -.978E+01 0.550E+02   0.185E-12 0.284E-12 0.182E-10   0.944E+01 0.973E+01 -.554E+02   -.112E+00 -.501E-01 0.658E+00

 POSITION                                       TOTAL-FORCE (eV/Angst)
      8.46781      1.94101      0.00000        -0.007826     -0.008790      2.492504
      8.46781      5.82303      0.00000         0.006137      0.009114      2.469429
      2.97781      1.94101      0.00000        -0.027211      0.002620      2.512600
      8.46781      9.70504      0.00000         0.006344      0.002277      2.543353
      2.97781      5.82303      0.00000        -0.022840      0.003531      2.540201
      2.97781      9.70504      0.00000        -0.032072     -0.003450      2.531941
      5.72281      0.00000      1.94101         0.040580     -0.065427     -0.898321
      5.72281      7.76403      1.94101        -0.006810      0.055841     -0.820652
      0.23281      0.00000      1.94101         0.051625     -0.085408     -0.981418
      5.72281      3.88202      1.94101         0.003051      0.003051     -0.962194
      0.23281      3.88202      1.94101         0.084941      0.014837     -0.947316
      0.23281      7.76403      1.94101         0.073373      0.041574     -0.948065
      8.47393      1.93701      3.88862        -0.002211      0.001491     -0.002778
      8.46858      9.69158      3.90164        -0.001479      0.000971     -0.003216
      2.98938      1.92740      3.88997        -0.001326     -0.000194     -0.003922
      8.46872      5.83165      3.87664        -0.003090      0.000108     -0.000832
      2.98983      5.83221      3.90134        -0.001671     -0.000698     -0.003984
      2.99429      9.69635      3.89473        -0.000219      0.003286     -0.004898
      0.26325      7.76099      5.79077        -0.003457      0.002564     -0.006537
      5.72097      7.75363      5.84595        -0.001028      0.000143     -0.005053
      0.27475      3.86307      5.76387        -0.002494     -0.002087     -0.005290
      0.25929     11.62287      5.76854        -0.001026      0.001442      0.000012
      5.74454      0.01371      5.80322        -0.003076      0.003160     -0.000202
      5.70139      3.88522      5.76619         0.000893      0.002165      0.002999
      8.50979      5.80186      7.69810        -0.010570     -0.003219     -0.005206
      8.52008      1.95771      7.76414        -0.006173      0.003717      0.003383
      2.92811      5.81642      7.86401         0.006023      0.000038     -0.008276
      3.05282      9.69319      7.83487        -0.003358      0.007073     -0.001664
      2.97629      1.92257      7.82771        -0.004049     -0.002664      0.003465
      8.50208      9.71439      7.83336        -0.003170      0.004832     -0.000978
      0.29155      0.01878      9.51368         0.004364      0.003751     -0.000103
      5.72379     11.60056      9.57767         0.000331      0.002485      0.001678
      0.31281      7.94784      9.58096        -0.006302      0.006124     -0.000124
      5.84835      7.93417      9.71063        -0.013590     -0.008410      0.000499
      0.15688      3.77793      9.53801        -0.001477     -0.009461     -0.001059
      7.09531      3.88202      0.00000         1.142966      0.003692     -0.457992
      1.60531      0.00000      0.00000         1.138239      0.006287     -0.466862
      7.09531      7.76403      0.00000         1.137425     -0.011584     -0.455619
      9.84031      0.00000      0.00000        -1.146569      0.013375     -0.463861
      9.84031      3.88202      0.00000        -1.146558      0.000370     -0.456640
      1.60531      3.88202      0.00000         1.133811     -0.004898     -0.465394
      4.35031      7.76403      0.00000        -1.130987      0.002548     -0.450066
      4.35031      0.00000      0.00000        -1.130031      0.004632     -0.446973
      7.09531      0.00000      0.00000         1.135445      0.010774     -0.458315
      4.35031      3.88202      0.00000        -1.134193     -0.005768     -0.454924
      9.84031      7.76403      0.00000        -1.150087     -0.012497     -0.464177
      1.60531      7.76403      0.00000         1.140302      0.000427     -0.470945
      4.35031      9.70504      1.94101        -0.332806     -0.009074     -0.356803
      7.09531      9.70504      1.94101         0.374899     -0.005649     -0.312854
      4.35031      1.94101      1.94101        -0.324330     -0.048046     -0.317842
      1.60531      1.94101      1.94101         0.341210     -0.020346     -0.347953
      9.84031      1.94101      1.94101        -0.355829     -0.038582     -0.276746
      9.84031      9.70504      1.94101        -0.398740     -0.026857     -0.319868
      7.09531      1.94101      1.94101         0.353569     -0.038849     -0.290324
      1.60531      9.70504      1.94101         0.368652     -0.025120     -0.330455
      4.35031      5.82303      1.94101        -0.329537      0.024021     -0.306659
      1.60531      5.82303      1.94101         0.350048      0.009619     -0.304999
      9.84031      5.82303      1.94101        -0.370653      0.012166     -0.350290
      7.09531      5.82303      1.94101         0.357935      0.056071     -0.308756
      7.10826     11.62829      3.88938        -0.001074      0.000592     -0.000578
[...]
      4.46780      9.80270      9.77013        -0.001128      0.001374      0.003388
      4.48542      1.79222      9.74450         0.004100      0.003378     -0.003669
      1.56790      1.87151      9.68868         0.000303     -0.001275     -0.001497
      9.96255      9.75168      9.66308        -0.003062      0.001914     -0.000504
      9.94334      1.87389      9.59821        -0.001227      0.002333     -0.003303
      7.36478      2.47590      9.90977         0.004867      0.013510     -0.000397
      9.20854      5.07949      9.79161        -0.015120     -0.000561     -0.001184
      7.13445      6.55676     10.67701        -0.009554     -0.002487      0.008748
      1.08549      5.86105      9.68821        -0.016706     -0.000017      0.001989
      5.78472      3.00532      8.81582         0.003980      0.009589      0.004165
      7.35286      4.57783     10.54058        -0.009026      0.001140     -0.007341
      4.31640      6.06887     10.02770         0.003120      0.015872     -0.038664
      4.24525      5.11784     10.99730        -0.013467      0.041635     -0.013108
      5.79905      4.22075     11.60092        -0.007334     -0.005913     -0.004173
      5.41788      3.62680     12.54254        -0.023675     -0.006950     -0.019890
    total drift:                                0.115780     -0.107937      0.224040

  FREE ENERGIE OF THE ION-ELECTRON SYSTEM (eV)
  free  energy   TOTEN  =      -903.63509425 eV

  energy  without entropy=     -903.62736570  energy(sigma->0) =     -903.63122998

 d Force = 0.1523701E-03[ 0.137E-03, 0.168E-03]  d Energy = 0.1734494E-03-0.211E-04
 d Force =-0.4724449E+01[-0.472E+01,-0.472E+01]  d Ewald  =-0.4724449E+01 0.291E-10

 stress matrix after NEB project (eV)
    -69.75244      2.66613     -1.50438
      2.66620   -115.95681      0.71979
     -1.50455      0.71990    -70.00269
  FORCES: max atom, RMS     0.045679    0.008457
  FORCE total and by dimension    0.089505    0.041635
  Stress total and by dimension  152.418969  115.956812
 Quasi-Newton relaxation of ions (Broydens 2nd method)
  g(Force)  = 0.773E-04   g(Stress)= 0.000E+00

 retain information from N=  1 steps
 eigenvalues of (default step * inverse Hessian matrix)
  average eigenvalue of G=   0.0424
 eigenvalue spectrum of G is  0.0424

 reached required accuracy - stopping structural energy minimisation
 writing wavefunctions

 total charge

[...]

 magnetization (x)

# of ion     s       p       d       f       tot
  1       -0.000  -0.000   0.000   0.000   0.000
  2       -0.000  -0.000   0.000   0.000   0.000
  3       -0.000   0.000   0.000  -0.000  -0.000
  4       -0.000  -0.000   0.000   0.000   0.000
  5       -0.000  -0.000   0.000   0.000   0.000
  6       -0.000  -0.000   0.000   0.000   0.000
  7       -0.000   0.000   0.000  -0.000  -0.000
  8       -0.000  -0.000   0.000   0.000   0.000
  9       -0.000  -0.000   0.000  -0.000   0.000
 10       -0.000  -0.000   0.000   0.000   0.000
 11       -0.000  -0.000   0.000   0.000   0.000
 12       -0.000  -0.000   0.000   0.000   0.000
 13       -0.000   0.000   0.000  -0.000  -0.000
 14       -0.000  -0.000  -0.000   0.000   0.000
 15        0.000   0.000   0.000   0.000   0.000
 16       -0.000   0.000   0.000   0.000   0.000
 17       -0.000  -0.000   0.000   0.002   0.002
 18       -0.000  -0.000   0.000   0.000   0.000
 19       -0.000  -0.000  -0.000   0.000   0.000
 20       -0.000  -0.000   0.000   0.004   0.004
 21       -0.000  -0.000   0.000   0.004   0.004
 22       -0.000  -0.000  -0.000   0.000   0.000
 23        0.000   0.000   0.000   0.000   0.001
 24       -0.000   0.000  -0.000  -0.002  -0.002
 25        0.000   0.001   0.000   0.003   0.004
 26       -0.000   0.000  -0.001  -0.003  -0.004
 27       -0.004  -0.006   0.009   0.951   0.950
 28       -0.000   0.000   0.000   0.001   0.001
 29        0.000  -0.000   0.001   0.008   0.008
 30       -0.000   0.000   0.000  -0.000  -0.000
 31        0.000  -0.000   0.000   0.000   0.000
 32       -0.000   0.000  -0.000  -0.004  -0.004
 33       -0.000  -0.000  -0.000   0.001   0.001
 34        0.000   0.002   0.001  -0.015  -0.012
 35       -0.000  -0.000   0.001   0.008   0.008
 36        0.000  -0.000   0.000   0.000  -0.000
 37        0.000  -0.000   0.000   0.000  -0.000
 38        0.000  -0.000   0.000   0.000  -0.000
 39        0.000  -0.000   0.000   0.000   0.000
 40        0.000  -0.000   0.000   0.000  -0.000
 41        0.000  -0.000   0.000   0.000  -0.000
 42       -0.000  -0.000   0.000   0.000  -0.000
 43        0.000  -0.000   0.000   0.000  -0.000
 44        0.000   0.000   0.000   0.000   0.000
 45       -0.000  -0.000   0.000   0.000  -0.000
 46        0.000  -0.000   0.000   0.000  -0.000
 47       -0.000  -0.000   0.000   0.000  -0.000
 48        0.000  -0.000   0.000   0.000  -0.000
 49        0.000   0.000   0.000   0.000   0.000
 50        0.000   0.000   0.000   0.000   0.000
 51        0.000   0.000   0.000   0.000   0.000
 52        0.000   0.000   0.000   0.000   0.000
 53        0.000  -0.000   0.000   0.000  -0.000
 54        0.000   0.000   0.000   0.000   0.000
 55        0.000  -0.000   0.000   0.000  -0.000
 56       -0.000  -0.000   0.000   0.000  -0.000
 57       -0.000  -0.000   0.000   0.000  -0.000
 58       -0.000  -0.000   0.000   0.000  -0.000
 59        0.000  -0.000   0.000   0.000  -0.000
 60        0.000  -0.000   0.000   0.000  -0.000
[...]
 98        0.000   0.003   0.000   0.000   0.003
 99        0.000   0.016   0.000   0.000   0.017
100       -0.000  -0.000   0.000   0.000  -0.000
101       -0.000  -0.000   0.000   0.000  -0.000
102       -0.000  -0.000   0.000   0.000  -0.000
103        0.000   0.007   0.000   0.000   0.007
104        0.001   0.019   0.000   0.000   0.020
105        0.000   0.014   0.000   0.000   0.015
106       -0.000  -0.003   0.000   0.000  -0.003
107        0.003   0.001   0.105   0.000   0.109
108        0.011   0.003   0.113   0.000   0.127
109        0.003   0.192   0.000   0.000   0.195
110        0.004   0.302   0.000   0.000   0.306
111       -0.000  -0.005   0.000   0.000  -0.005
112        0.000   0.004   0.000   0.000   0.004
tot        0.016   0.563   0.230   0.958   1.767