 vasp.5.3.5 31Mar14 (build May 27 2014 14:39:49) gamma-only

 executed on           LinuxIFORT date 2020.10.20  04:47:46

 INCAR:
 POTCAR:    PAW_PBE Ce 23Dec2003
 POTCAR:    PAW_PBE O 08Apr2002
 POTCAR:    PAW_PBE Pt 04Feb2005
 POTCAR:    PAW_PBE C 08Apr2002
 POTCAR:    PAW_PBE O 08Apr2002
 POTCAR:    PAW_PBE Ce 23Dec2003
   VRHFIN =Ce : [core= Kr 4d10]

   TITEL  = PAW_PBE Ce 23Dec2003
   POMASS =  140.115; ZVAL   =   12.000    mass and valenz
   ENMAX  =  273.042; ENMIN  =  204.781 eV

 POTCAR:    PAW_PBE O 08Apr2002
   VRHFIN =O: s2p4

   TITEL  = PAW_PBE O 08Apr2002
   POMASS =   16.000; ZVAL   =    6.000    mass and valenz
   ENMAX  =  400.000; ENMIN  =  300.000 eV

 POTCAR:    PAW_PBE Pt 04Feb2005
   VRHFIN =Pt: s1d9

   TITEL  = PAW_PBE Pt 04Feb2005
   POMASS =  195.080; ZVAL   =   10.000    mass and valenz
   ENMAX  =  230.283; ENMIN  =  172.712 eV

 POTCAR:    PAW_PBE C 08Apr2002
   VRHFIN =C: s2p2

[...]

 POTCAR:    PAW_PBE O 08Apr2002
   VRHFIN =O: s2p4

   TITEL  = PAW_PBE O 08Apr2002
   POMASS =   16.000; ZVAL   =    6.000    mass and valenz
   ENMAX  =  400.000; ENMIN  =  300.000 eV

 Optimization of the real space projectors (new method)

 maximal supplied QI-value         = 13.98
 optimisation between [QCUT,QGAM] = [ 10.21, 20.42] = [ 29.18,116.73] Ry
 Optimized for a Real-space Cutoff    1.65 Angstroem

   l    n(q)    QCUT    max X(q) W(low)/X(q) W(high)/X(q)  e(spline)
   0     10    10.208     8.553    0.18E-04    0.75E-05    0.12E-06
   0     10    10.208     8.106    0.26E-04    0.16E-04    0.24E-06
   1     10    10.208     4.160    0.93E-05    0.96E-06    0.75E-07
   1     10    10.208     3.597    0.23E-04    0.26E-04    0.15E-06
   2      9    10.208     8.183    0.11E-03    0.28E-03    0.51E-06
   2      9    10.208     6.077    0.74E-04    0.19E-03    0.37E-06
   3      9    10.208   116.013    0.19E-03    0.98E-05    0.18E-06
   3      9    10.208   108.937    0.19E-03    0.10E-04    0.18E-06
 Optimization of the real space projectors (new method)

[...]

   l    n(q)    QCUT    max X(q) W(low)/X(q) W(high)/X(q)  e(spline)
   0      9    10.053   115.676    0.19E-03    0.21E-03    0.38E-06
   0      9    10.053    87.132    0.19E-03    0.21E-03    0.38E-06
   1      9    10.053     4.429    0.87E-04    0.11E-03    0.39E-06
   1      9    10.053     2.733    0.59E-04    0.62E-04    0.43E-06
 Optimization of the real space projectors (new method)

 maximal supplied QI-value         = 24.76
 optimisation between [QCUT,QGAM] = [ 10.15, 20.30] = [ 28.85,115.39] Ry
 Optimized for a Real-space Cutoff    1.51 Angstroem

   l    n(q)    QCUT    max X(q) W(low)/X(q) W(high)/X(q)  e(spline)
   0      9    10.150    20.381    0.17E-03    0.18E-03    0.41E-06
   0      9    10.150    15.268    0.18E-03    0.20E-03    0.43E-06
   1      9    10.150     5.964    0.16E-03    0.20E-03    0.36E-06
   1      9    10.150     5.382    0.13E-03    0.16E-03    0.33E-06
  PAW_PBE Ce 23Dec2003                  :
  PAW_PBE O 08Apr2002                   :
  PAW_PBE Pt 04Feb2005                  :
  PAW_PBE C 08Apr2002                   :
  PAW_PBE O 08Apr2002                   :

 POSCAR: CeO2-110-l3-p23:
  positions in direct lattice
  velocities in cartesian coordinates
 exchange correlation table for  LEXCH =        8
   RHO(1)=    0.500       N(1)  =     2000
   RHO(2)=  100.500       N(2)  =     4000

 VTST: version 3.1, (03/28/14)

 CHAIN: initializing optimizer

 OPT: Using VASP Conjugate-Gradient optimizer
 CHAIN: Read ICHAIN            0

 POSCAR: CeO2-110-l3-p23:
  positions in direct lattice
  velocities in cartesian coordinates

 ion  position               nearest neighbor table
   1  0.771  0.167  0.000-  36 2.38  40 2.38  39 2.38  44 2.38  52 2.38  54 2.38
   2  0.771  0.500  0.000-  36 2.38  38 2.38  40 2.38  46 2.38  58 2.38  59 2.38
   3  0.271  0.167  0.000-  41 2.38  45 2.38  43 2.38  37 2.38  50 2.38  51 2.38
   4  0.771  0.833  0.000-  38 2.38  46 2.38  44 2.38  39 2.38  49 2.38  53 2.38
   5  0.271  0.500  0.000-  41 2.38  42 2.38  45 2.38  47 2.38  56 2.38  57 2.38
   6  0.271  0.833  0.000-  42 2.38  47 2.38  43 2.38  37 2.38  48 2.38  55 2.38
   7  0.521  0.000  0.079-  60 2.38  66 2.38  50 2.38  54 2.38  48 2.38  49 2.38  43 2.38  44 2.38

   8  0.521  0.667  0.079-  62 2.38  49 2.38  48 2.38  59 2.38  56 2.38  42 2.38  38 2.38  61 2.38

[...]

  23  0.522  0.002  0.235-  78 2.35  72 2.35  60 2.36  66 2.36  90 2.36  73 2.38  74 2.43  88 2.44

  24  0.519  0.333  0.232-  84 2.32  68 2.32  70 2.34  78 2.39  80 2.39  72 2.41  87 2.43  77 2.44
                           108 3.09
  25  0.774  0.501  0.314-  84 2.31 105 2.32  75 2.34  89 2.35  91 2.36  93 2.38  77 2.43 109 3.15

[...]

  31  0.022  0.999  0.385-  95 2.24  85 2.25 102 2.31 100 2.33 101 2.34  97 2.37
  32  0.515  0.998  0.386-  99 2.21  98 2.22  96 2.25  90 2.26  88 2.26 108 3.17
  33  0.019  0.667  0.385-  91 2.23  86 2.26  97 2.30 101 2.33 107 2.34 105 2.42
  34  0.529  0.684  0.393- 106 2.10  96 2.26  89 2.28  98 2.31  92 2.38 104 2.50
  35  0.021  0.331  0.385-  94 2.23  93 2.26 102 2.32 105 2.34 100 2.35 107 2.37
  36  0.646  0.333  0.000-   1 2.38   2 2.38  10 2.38
  37  0.146  0.000  0.000-   3 2.38   6 2.38   9 2.38
  38  0.646  0.667  0.000-   4 2.38   2 2.38   8 2.38
  39  0.896  0.000  0.000-   1 2.38   4 2.38   9 2.38
  40  0.896  0.333  0.000-   1 2.38   2 2.38  11 2.38
  41  0.146  0.333  0.000-   3 2.38   5 2.38  11 2.38
  42  0.396  0.667  0.000-   6 2.38   5 2.38   8 2.38
  43  0.396  0.000  0.000-   3 2.38   6 2.38   7 2.38
  44  0.646  0.000  0.000-   1 2.38   4 2.38   7 2.38
  45  0.396  0.333  0.000-   3 2.38   5 2.38  10 2.38
  46  0.896  0.667  0.000-   4 2.38   2 2.38  12 2.38
  47  0.146  0.667  0.000-   6 2.38   5 2.38  12 2.38
  48  0.396  0.833  0.079-   8 2.38   7 2.38   6 2.38  18 2.38
  49  0.646  0.833  0.079-   8 2.38   7 2.38   4 2.38  14 2.38
  50  0.396  0.167  0.079-  10 2.38   7 2.38   3 2.38  15 2.38
  51  0.146  0.167  0.079-  11 2.38   9 2.38   3 2.38  15 2.38
  52  0.896  0.167  0.079-  11 2.38   9 2.38   1 2.38  13 2.39
  53  0.896  0.833  0.079-  12 2.38   9 2.38   4 2.38  14 2.39
  54  0.646  0.167  0.079-  10 2.38   7 2.38   1 2.38  13 2.38
  55  0.146  0.833  0.079-  12 2.38   9 2.38   6 2.38  18 2.40
  56  0.396  0.500  0.079-   8 2.38  10 2.38   5 2.38  17 2.38
  57  0.146  0.500  0.079-  11 2.38  12 2.38   5 2.38  17 2.38
  58  0.896  0.500  0.079-  11 2.38  12 2.38   2 2.38  16 2.38
  59  0.646  0.500  0.079-  16 2.37  10 2.38   8 2.38   2 2.38
  60  0.646  0.998  0.157-  14 2.36  23 2.36   7 2.38  13 2.39
  61  0.396  0.666  0.157-  17 2.37  18 2.37   8 2.38  20 2.38
  62  0.646  0.670  0.157-  14 2.35   8 2.38  20 2.39  16 2.39
  63  0.896  0.667  0.157-  19 2.34  16 2.37  12 2.37  14 2.38
  64  0.147  0.999  0.157-  22 2.34  15 2.37   9 2.37  18 2.38
  65  0.896  1.000  0.157-  22 2.34   9 2.37  13 2.38  14 2.38
  66  0.396  0.998  0.157-  18 2.36  23 2.36   7 2.38  15 2.39
  67  0.146  0.666  0.157-  19 2.34  17 2.37  12 2.37  18 2.38
  68  0.395  0.334  0.156-  24 2.32  17 2.37  10 2.37  15 2.39
  69  0.895  0.334  0.157-  21 2.34  11 2.38  13 2.38  16 2.39
  70  0.646  0.334  0.157-  24 2.34  10 2.36  16 2.38  13 2.39
  71  0.146  0.333  0.157-  21 2.33  11 2.37  17 2.39  15 2.39
  72  0.647  0.166  0.234-  13 2.32  23 2.35  24 2.41  26 2.46
  73  0.646  0.835  0.238-  23 2.38  30 2.38  20 2.40  14 2.42
  74  0.396  0.830  0.237-  20 2.34  18 2.38  28 2.42  23 2.43
  75  0.896  0.501  0.236-  25 2.34  16 2.38  19 2.38  21 2.40
  76  0.146  0.832  0.235-  19 2.36  18 2.36  22 2.38  28 2.45
  77  0.646  0.505  0.234-  20 2.33  16 2.33  25 2.43  24 2.44
  78  0.395  0.164  0.233-  15 2.32  23 2.35  24 2.39  29 2.46
  79  0.896  0.167  0.235-  13 2.37  21 2.37  22 2.39  26 2.40
  80  0.395  0.502  0.236-  20 2.36  17 2.37  24 2.39  27 2.41
  81  0.147  0.499  0.236-  17 2.37  27 2.38  21 2.38  19 2.39
  82  0.146  0.165  0.235-  15 2.37  22 2.37  21 2.37  29 2.41
  83  0.896  0.833  0.235-  14 2.36  19 2.37  22 2.37  30 2.44
  84  0.648  0.343  0.307- 108 2.03  25 2.31  24 2.32  26 2.44
  85  0.897  0.000  0.312-  31 2.25  30 2.35  22 2.38  26 2.40
  86  0.144  0.665  0.312-  33 2.26  27 2.36  28 2.37  19 2.37
  87  0.384  0.332  0.310- 108 2.03  27 2.33  29 2.33  24 2.43
  88  0.648  0.009  0.316-  32 2.26  26 2.34  30 2.43  23 2.44
  89  0.647  0.663  0.317-  34 2.28  25 2.35  30 2.43  20 2.44
  90  0.395  0.996  0.312-  32 2.26  23 2.36  28 2.37  29 2.40
[...]
  94  0.143  0.333  0.313-  35 2.23  21 2.37  27 2.38  29 2.41
  95  0.146  0.997  0.313-  31 2.24  29 2.38  28 2.38  22 2.39
  96  0.642  0.847  0.392-  32 2.25  34 2.26  30 2.33
  97  0.139  0.829  0.390-  33 2.30  28 2.32  31 2.37
  98  0.401  0.842  0.394-  32 2.22  34 2.31  28 2.37
  99  0.406  0.157  0.392- 108 2.01  32 2.21  29 2.41
 100  0.141  0.164  0.390-  29 2.31  31 2.33  35 2.35
 101  0.903  0.833  0.390-  30 2.30  33 2.33  31 2.34
 102  0.905  0.164  0.389-  31 2.31  26 2.32  35 2.32
 103  0.666  0.229  0.399- 108 1.97 109 2.19  26 2.47
 104  0.417  0.499  0.402- 110 1.30  34 2.50
 105  0.897  0.494  0.390-  25 2.32  35 2.34  33 2.42
 106  0.648  0.578  0.436- 109 1.98  34 2.10
 107  0.140  0.501  0.389-  27 2.30  33 2.34  35 2.37
 108  0.523  0.261  0.353- 103 1.97  99 2.01  84 2.03  87 2.03 109 2.82  24 3.09  26 3.09  29 3.13
                            32 3.17
 109  0.653  0.411  0.421- 106 1.98 110 2.04 103 2.19 108 2.82  25 3.15
 110  0.469  0.424  0.433- 111 1.22 104 1.30 109 2.04
 111  0.429  0.370  0.471- 110 1.22

IMPORTANT INFORMATION: All symmetrisations will be switched off!
NOSYMM: (Re-)initialisation of all symmetry stuff for point group C_1.

 KPOINTS: CeO2-111-3x3-9layers         ! Comment

Automatic generation of k-mesh.
Space group operators:
 irot       det(A)        alpha          n_x          n_y          n_z        tau_x        tau_y        tau_z
    1     1.000000     0.000000     1.000000     0.000000     0.000000     0.000000     0.000000     0.000000

 Subroutine IBZKPT returns following result:

 Found      1 irreducible k-points:

 Following reciprocal coordinates:
            Coordinates               Weight
  0.000000  0.000000  0.000000      1.000000

 Following cartesian coordinates:
            Coordinates               Weight
  0.000000  0.000000  0.000000      1.000000

 I would recommend the setting:
   dimension x,y,z NGX =    72 NGY =   76 NGZ =  161
 SYSTEM =  unknown system
 POSCAR =  CeO2-110-l3-p23:

 Startparameter for this run:
   NWRITE =      2    write-flag & timer
   PREC   = accura    normal or accurate (medium, high low for compatibility)
   ISTART =      1    job   : 0-new  1-cont  2-samecut
   ICHARG =      0    charge: 1-file 2-atom 10-const
   ISPIN  =      2    spin polarized calculation?
   LNONCOLLINEAR =      F non collinear calculations
   LSORBIT =      F    spin-orbit coupling
   INIWAV =      1    electr: 0-lowe 1-rand  2-diag
   LASPH  =      T    aspherical Exc in radial PAW
   METAGGA=      F    non-selfconsistent MetaGGA calc.

 Electronic Relaxation 1
   ENCUT  =  400.0 eV  29.40 Ry    5.42 a.u.  17.91 18.99 40.29*2*pi/ulx,y,z
   ENINI  =  400.0     initial cutoff
[...]
   -.780E+01 0.256E+02 -.312E+04   0.771E+01 -.250E+02 0.311E+04   0.954E-01 -.656E+00 0.608E+01   -.139E-02 0.148E-02 0.806E-02
   -.505E+02 -.107E+02 -.311E+04   0.479E+02 0.879E+01 0.311E+04   0.260E+01 0.189E+01 0.537E+01   0.129E-02 0.204E-01 0.904E-02
   -.175E+02 -.101E+02 -.311E+04   0.179E+02 0.112E+02 0.310E+04   -.428E+00 -.108E+01 0.605E+01   -.331E-02 -.674E-02 0.399E-02
   0.104E+03 -.799E+02 -.298E+04   -.987E+02 0.787E+02 0.297E+04   -.497E+01 0.125E+01 0.177E+01   0.403E-02 -.160E-02 0.980E-02
   -.508E+02 0.543E+01 -.311E+04   0.507E+02 -.562E+01 0.310E+04   0.110E+00 0.181E+00 0.618E+01   -.104E-02 -.117E-02 0.767E-02
   0.679E+02 -.118E-01 0.162E+04   -.739E+02 0.143E-01 -.162E+04   0.718E+01 0.159E-01 0.509E+01   0.237E-02 -.111E-01 -.149E-02
   0.681E+02 0.685E+00 0.162E+04   -.741E+02 -.699E+00 -.162E+04   0.719E+01 0.194E-01 0.506E+01   -.362E-02 0.383E-02 -.269E-03
   0.682E+02 -.739E+00 0.162E+04   -.742E+02 0.754E+00 -.162E+04   0.718E+01 -.250E-01 0.509E+01   -.534E-02 -.173E-02 -.478E-03
   -.681E+02 0.622E+00 0.162E+04   0.741E+02 -.642E+00 -.162E+04   -.718E+01 0.134E-01 0.506E+01   -.207E-02 0.129E-01 -.759E-03
   -.683E+02 0.352E-01 0.162E+04   0.743E+02 -.291E-01 -.162E+04   -.719E+01 0.948E-02 0.507E+01   -.232E-02 -.112E-01 -.131E-02
   0.682E+02 -.580E-01 0.162E+04   -.742E+02 0.543E-01 -.162E+04   0.718E+01 -.456E-02 0.508E+01   0.217E-02 0.553E-02 -.914E-03
   -.681E+02 -.698E+00 0.162E+04   0.741E+02 0.712E+00 -.162E+04   -.718E+01 -.990E-02 0.508E+01   -.790E-03 -.941E-02 -.422E-03
   -.680E+02 0.802E+00 0.162E+04   0.740E+02 -.812E+00 -.162E+04   -.718E+01 0.122E-01 0.508E+01   0.351E-02 0.379E-02 -.442E-03
   0.680E+02 0.758E+00 0.162E+04   -.740E+02 -.777E+00 -.162E+04   0.718E+01 0.127E-01 0.508E+01   0.215E-02 0.128E-01 -.102E-02
   -.678E+02 -.962E-01 0.162E+04   0.738E+02 0.926E-01 -.162E+04   -.718E+01 -.506E-02 0.507E+01   -.223E-02 0.562E-02 -.105E-02
   -.681E+02 -.670E+00 0.162E+04   0.741E+02 0.684E+00 -.162E+04   -.719E+01 -.225E-01 0.507E+01   0.530E-02 -.171E-02 -.349E-03
   0.680E+02 -.624E+00 0.162E+04   -.740E+02 0.642E+00 -.162E+04   0.718E+01 -.166E-01 0.507E+01   0.816E-03 -.937E-02 -.398E-03
   -.451E+01 0.865E+00 0.994E+03   0.500E+01 -.812E+00 -.993E+03   -.841E+00 -.869E-01 -.891E+00   0.229E-02 -.494E-03 0.265E-02
   0.466E+01 0.471E+00 0.994E+03   -.516E+01 -.487E+00 -.994E+03   0.859E+00 0.317E-01 -.960E+00   -.273E-02 0.936E-03 0.286E-02
   -.431E+01 0.202E+01 0.997E+03   0.483E+01 -.195E+01 -.997E+03   -.858E+00 -.111E+00 -.800E+00   0.150E-02 0.668E-03 -.423E-03
   0.511E+01 0.748E+00 0.997E+03   -.564E+01 -.689E+00 -.997E+03   0.871E+00 -.745E-01 -.867E+00   -.190E-02 0.754E-03 0.295E-03
   -.479E+01 0.116E+01 0.996E+03   0.527E+01 -.116E+01 -.996E+03   -.816E+00 0.242E-03 -.953E+00   -.407E-02 -.359E-03 -.707E-02
   -.360E+01 0.312E-01 0.994E+03   0.405E+01 -.269E-01 -.993E+03   -.838E+00 -.582E-02 -.959E+00   0.307E-02 0.672E-03 0.331E-02
   0.419E+01 0.240E+01 0.998E+03   -.469E+01 -.239E+01 -.997E+03   0.833E+00 -.350E-01 -.804E+00   0.459E-02 -.401E-03 -.780E-02
   0.336E+01 0.212E+00 0.993E+03   -.379E+01 -.154E+00 -.993E+03   0.809E+00 -.859E-01 -.101E+01   -.251E-02 -.344E-03 0.335E-02
   -.462E+01 -.284E+01 0.996E+03   0.515E+01 0.281E+01 -.996E+03   -.877E+00 0.599E-01 -.872E+00   -.331E-02 -.351E-03 -.524E-02
   0.469E+01 -.900E+00 0.996E+03   -.523E+01 0.864E+00 -.996E+03   0.890E+00 0.366E-01 -.851E+00   0.300E-02 -.273E-03 -.485E-02
   -.544E+01 -.935E+00 0.996E+03   0.600E+01 0.864E+00 -.996E+03   -.927E+00 0.914E-01 -.952E+00   0.338E-02 -.746E-03 0.217E-02
   0.575E+01 -.334E+01 0.998E+03   -.639E+01 0.325E+01 -.997E+03   0.980E+00 0.170E+00 -.658E+00   -.291E-02 -.869E-03 0.146E-02
   -.164E+01 0.694E+01 0.360E+03   0.177E+01 -.675E+01 -.360E+03   -.133E+00 -.192E+00 0.318E+00   0.909E-03 0.162E-02 -.123E-02
[...]
   0.117E+03 0.502E+01 -.161E+04   -.124E+03 -.667E+01 0.162E+04   0.738E+01 0.165E+01 -.704E+01   -.420E-02 0.652E-02 0.569E-02
   0.132E+03 0.323E+02 -.164E+04   -.145E+03 -.332E+02 0.166E+04   0.131E+02 0.913E+00 -.163E+02   0.364E-02 0.471E-02 0.661E-02
   -.680E+02 0.126E+02 -.161E+04   0.726E+02 -.122E+02 0.162E+04   -.464E+01 -.358E+00 -.779E+01   0.524E-02 0.317E-02 0.437E-02
   0.595E+02 -.138E+02 -.161E+04   -.640E+02 0.139E+02 0.162E+04   0.450E+01 -.303E-01 -.784E+01   0.186E-02 0.424E-02 0.427E-02
   0.498E+02 0.406E+02 -.160E+04   -.546E+02 -.404E+02 0.161E+04   0.487E+01 -.198E+00 -.755E+01   -.176E-03 0.521E-02 0.646E-02
   -.119E+03 0.147E+03 -.165E+04   0.133E+03 -.159E+03 0.166E+04   -.146E+02 0.117E+02 -.150E+02   -.110E-01 0.208E-02 0.324E-02
   0.180E+03 -.110E+03 -.141E+04   -.200E+03 0.133E+03 0.139E+04   0.200E+02 -.234E+02 0.217E+02   0.408E-03 -.185E-01 0.314E-01
   0.783E+01 -.311E+02 -.158E+04   -.111E+02 0.322E+02 0.158E+04   0.330E+01 -.118E+01 -.743E+01   -.770E-03 0.286E-02 0.238E-02
   -.143E+03 -.120E+03 -.169E+04   0.152E+03 0.131E+03 0.171E+04   -.862E+01 -.115E+02 -.114E+02   0.968E-02 -.315E-01 0.952E-02
   -.646E+02 -.118E+02 -.159E+04   0.685E+02 0.115E+02 0.160E+04   -.387E+01 0.320E+00 -.773E+01   0.403E-02 -.578E-02 -.123E-02
   0.695E+02 0.331E+02 -.202E+04   -.688E+02 -.358E+02 0.202E+04   -.719E+00 0.269E+01 0.784E-01   0.766E-02 0.215E-02 0.189E-01
   -.222E+03 0.552E+02 -.265E+04   0.217E+03 -.523E+02 0.265E+04   0.503E+01 -.293E+01 0.516E+00   0.927E-02 0.414E-02 0.245E-02
   -.148E+01 -.119E+01 -.102E+04   0.613E+01 0.198E+00 0.102E+04   -.463E+01 0.100E+01 0.473E+00   -.534E-02 0.132E-02 0.980E-02
   0.168E+03 0.138E+03 -.174E+04   -.188E+03 -.166E+03 0.179E+04   0.196E+02 0.288E+02 -.423E+02   -.117E-01 0.652E-02 0.246E-01
   -.247E+02 0.633E+01 0.495E+02   -.227E-12 -.171E-12 0.121E-10   0.244E+02 -.642E+01 -.498E+02   0.254E-01 0.681E-02 0.191E+00

 POSITION                                       TOTAL-FORCE (eV/Angst)
      8.46781      1.94101      0.00000         0.011722     -0.009276      2.513264
      8.46781      5.82303      0.00000         0.022856      0.004709      2.482082
      2.97781      1.94101      0.00000        -0.000852     -0.004173      2.500890
      8.46781      9.70504      0.00000         0.011117      0.006925      2.539583
      2.97781      5.82303      0.00000         0.002520      0.006357      2.506833
      2.97781      9.70504      0.00000        -0.011988      0.000253      2.536936
      5.72281      0.00000      1.94101         0.003172     -0.070476     -0.906784
      5.72281      7.76403      1.94101        -0.020710      0.078320     -0.845546
      0.23281      0.00000      1.94101        -0.010999     -0.053305     -0.988476
      5.72281      3.88202      1.94101        -0.021169      0.001431     -1.049875
      0.23281      3.88202      1.94101        -0.028535      0.002217     -0.964769
      0.23281      7.76403      1.94101        -0.010784      0.047204     -1.032522
      8.46270      1.93954      3.89014        -0.001502     -0.000506     -0.001109
      8.45742      9.70595      3.89633        -0.000307     -0.003062      0.000404
      2.97644      1.92671      3.88659        -0.000593     -0.000607     -0.000807
      8.45509      5.83761      3.88006         0.000709     -0.000985     -0.001275
      2.97855      5.83097      3.88788        -0.001287      0.000805     -0.002357
      2.98956      9.69612      3.89672        -0.002421     -0.000483     -0.001294
      0.23240      7.77393      5.76474        -0.001875     -0.000218      0.002073
      5.71350      7.76420      5.83704         0.001887      0.001178     -0.003338
      0.23752      3.87074      5.75993        -0.001168     -0.000422     -0.000075
      0.23204     11.63352      5.76645         0.000018     -0.002826      0.002818
      5.72790      0.02039      5.80169         0.000419      0.000299      0.001055
      5.69824      3.88259      5.74348         0.004208     -0.003482     -0.002434
      8.50371      5.83396      7.74700        -0.000793     -0.002362      0.004625
      8.50093      1.99046      7.80077        -0.004382     -0.000893      0.007925
      2.94248      5.81666      7.79634        -0.010100      0.003615     -0.005750
      2.97435      9.66628      7.83695        -0.003177      0.004231      0.000617
      2.96030      1.91266      7.80158        -0.003586     -0.004519      0.003449
      8.47476      9.73672      7.83359        -0.000493     -0.000799      0.000326
      0.23876     11.63793      9.50123         0.000489      0.001930      0.001443
      5.65652     11.62077      9.54489         0.005532      0.003007      0.002828
      0.21238      7.76328      9.51181        -0.001902     -0.001447      0.001273
      5.81283      7.96903      9.70525         0.005682      0.005831      0.005181
      0.23101      3.85553      9.51251        -0.003147     -0.004850      0.002598
      7.09531      3.88202      0.00000         1.141225      0.008045     -0.452653
      1.60531      0.00000      0.00000         1.144932      0.009944     -0.462780
      7.09531      7.76403      0.00000         1.142553     -0.011054     -0.455172
      9.84031      0.00000      0.00000        -1.140816      0.007387     -0.463933
      9.84031      3.88202      0.00000        -1.140405      0.005253     -0.460418
      1.60531      3.88202      0.00000         1.141013     -0.001952     -0.456769
      4.35031      7.76403      0.00000        -1.138967     -0.004073     -0.457982
      4.35031      0.00000      0.00000        -1.138451      0.006904     -0.456827
      7.09531      0.00000      0.00000         1.140072      0.007270     -0.457671
      4.35031      3.88202      0.00000        -1.138852     -0.002349     -0.458899
      9.84031      7.76403      0.00000        -1.141097     -0.009613     -0.461818
      1.60531      7.76403      0.00000         1.141796     -0.006977     -0.460356
      4.35031      9.70504      1.94101        -0.348066     -0.033649     -0.343141
      7.09531      9.70504      1.94101         0.361187      0.017077     -0.382785
      4.35031      1.94101      1.94101        -0.337180     -0.038927     -0.289078
      1.60531      1.94101      1.94101         0.344965     -0.014036     -0.335121
      9.84031      1.94101      1.94101        -0.342230      0.004052     -0.329652
      9.84031      9.70504      1.94101        -0.377784     -0.000085     -0.296955
      7.09531      1.94101      1.94101         0.336769     -0.020478     -0.303388
      1.60531      9.70504      1.94101         0.374892     -0.028148     -0.308833
      4.35031      5.82303      1.94101        -0.347702      0.025005     -0.339096
      1.60531      5.82303      1.94101         0.359871      0.001666     -0.322137
      9.84031      5.82303      1.94101        -0.359088      0.020696     -0.347818
      7.09531      5.82303      1.94101         0.343215      0.074950     -0.313935
      7.09630     11.62802      3.88081        -0.000499      0.000305      0.000051
[...]
      1.52337      9.64963      9.64610         0.006115      0.003406      0.004123
      4.39809      9.80076      9.73212         0.007637      0.006143      0.001688
      4.45644      1.82954      9.69154         0.001977     -0.008057      0.008933
      1.54584      1.91236      9.62649         0.000159      0.001298      0.000184
      9.91209      9.70435      9.63313         0.006479      0.004141      0.006463
      9.94220      1.91183      9.61911        -0.000636      0.003513      0.004154
      7.30818      2.66319      9.85360         0.002526     -0.028012      0.020328
      4.57654      5.80757      9.92112        -0.010882      0.000718      0.015306
      9.85369      5.75276      9.63334        -0.000702      0.003176     -0.000976
      7.12040      6.72957     10.78153        -0.004602     -0.011791     -0.002855
      1.53355      5.83080      9.61227         0.003909      0.003299     -0.000511
      5.73976      3.03545      8.71344        -0.028039      0.008001     -0.016986
      7.16634      4.78350     10.39885        -0.025891     -0.020544      0.010889
      5.15295      4.94083     10.70641        -0.008536     -0.006300      0.023715
      4.70781      4.31165     11.64650        -0.023857      0.012342      0.016537
    total drift:                               -0.206940     -0.085007     -0.060800

  FREE ENERGIE OF THE ION-ELECTRON SYSTEM (eV)
  free  energy   TOTEN  =      -899.74121147 eV

  energy  without entropy=     -899.74121147  energy(sigma->0) =     -899.74121147

 stress matrix after NEB project (eV)
    -72.03042      1.78682      0.20781
      1.78683   -120.51499     -0.33304
      0.20780     -0.33304    -66.65729
  FORCES: max atom, RMS     0.034799    0.008702
  FORCE total and by dimension    0.091677    0.028039
  Stress total and by dimension  155.441733  120.514991

 reached required accuracy - stopping structural energy minimisation
 writing wavefunctions

 total charge

[...]

 magnetization (x)

# of ion     s       p       d       f       tot
  1       -0.000  -0.000  -0.000  -0.000  -0.000
  2        0.000   0.000   0.000  -0.000  -0.000
  3        0.000   0.000   0.000  -0.000  -0.000
  4       -0.000   0.000   0.000   0.000   0.000
  5       -0.000   0.000   0.000   0.000   0.000
  6        0.000   0.000   0.000   0.000   0.000
  7       -0.000  -0.000  -0.000  -0.000  -0.000
  8        0.000   0.000   0.000   0.000   0.000
  9       -0.000   0.000  -0.000  -0.000  -0.000
 10       -0.000   0.000   0.000  -0.000  -0.000
 11        0.000  -0.000   0.000  -0.000  -0.000
 12        0.000   0.000  -0.000   0.000   0.000
 13       -0.000  -0.000   0.000  -0.000  -0.000
 14       -0.000   0.000   0.000  -0.000  -0.000
 15        0.000   0.000  -0.000   0.000   0.000
 16       -0.000  -0.000  -0.000  -0.000  -0.000
 17       -0.000   0.000   0.000   0.000   0.000
 18        0.000  -0.000  -0.000  -0.000  -0.000
 19        0.000   0.000   0.000   0.000   0.000
 20        0.000   0.000   0.000   0.000   0.000
 21        0.000  -0.000  -0.000  -0.000  -0.000
 22       -0.000  -0.000   0.000   0.000  -0.000
 23        0.000   0.000  -0.000  -0.000   0.000
 24        0.000   0.000  -0.000   0.000   0.000
 25        0.000   0.000   0.000   0.000   0.000
 26        0.000  -0.000   0.000   0.000   0.000
 27       -0.000   0.000   0.000   0.000   0.000
 28        0.000   0.000   0.000   0.000   0.000
 29        0.000  -0.000  -0.000   0.000   0.000
 30        0.000  -0.000   0.000   0.000   0.000
 31       -0.000  -0.000  -0.000   0.000   0.000
 32        0.000   0.000   0.000   0.000   0.000
 33       -0.000   0.000   0.000   0.000   0.000
 34       -0.000  -0.000   0.000   0.000   0.000
 35        0.000  -0.000   0.000  -0.000  -0.000
 36       -0.000   0.000   0.000   0.000   0.000
 37       -0.000   0.000   0.000   0.000  -0.000
 38       -0.000  -0.000   0.000   0.000  -0.000
 39       -0.000   0.000   0.000   0.000   0.000
 40        0.000   0.000   0.000   0.000   0.000
 41       -0.000   0.000   0.000   0.000   0.000
 42       -0.000  -0.000   0.000   0.000  -0.000
 43       -0.000   0.000   0.000   0.000   0.000
 44       -0.000  -0.000   0.000   0.000  -0.000
 45       -0.000   0.000   0.000   0.000   0.000
 46       -0.000  -0.000   0.000   0.000  -0.000
 47       -0.000  -0.000   0.000   0.000  -0.000
 48        0.000   0.000   0.000   0.000   0.000
 49        0.000  -0.000   0.000   0.000  -0.000
 50       -0.000   0.000   0.000   0.000  -0.000
 51       -0.000   0.000   0.000   0.000  -0.000
 52       -0.000   0.000   0.000   0.000   0.000
 53       -0.000  -0.000   0.000   0.000  -0.000
 54       -0.000   0.000   0.000   0.000   0.000
 55        0.000   0.000   0.000   0.000   0.000
 56       -0.000  -0.000   0.000   0.000  -0.000
 57       -0.000   0.000   0.000   0.000   0.000
 58       -0.000   0.000   0.000   0.000   0.000
 59       -0.000   0.000   0.000   0.000  -0.000
 60        0.000   0.000   0.000   0.000   0.000
[...]
 97       -0.000  -0.000   0.000   0.000  -0.000
 98       -0.000  -0.000   0.000   0.000  -0.000
 99        0.000  -0.000   0.000   0.000  -0.000
100       -0.000  -0.000   0.000   0.000  -0.000
101        0.000  -0.000   0.000   0.000  -0.000
102       -0.000  -0.000   0.000   0.000  -0.000
103       -0.000  -0.000   0.000   0.000  -0.000
104       -0.000   0.000   0.000   0.000   0.000
105        0.000  -0.000   0.000   0.000  -0.000
106       -0.000   0.000   0.000   0.000  -0.000
107       -0.000   0.000   0.000   0.000  -0.000
108        0.000   0.000   0.000   0.000   0.000
109        0.000   0.000  -0.000   0.000  -0.000
110        0.000  -0.000   0.000   0.000   0.000
111        0.000  -0.000   0.000   0.000  -0.000
tot       -0.000  -0.000   0.000   0.000   0.000