 vasp.5.3.5 31Mar14 (build May 27 2014 14:39:49) gamma-only

 executed on           LinuxIFORT date 2020.11.28  11:33:06

 INCAR:
 POTCAR:    PAW_PBE Ce 23Dec2003
 POTCAR:    PAW_PBE O 08Apr2002
 POTCAR:    PAW_PBE Pt 04Feb2005
 POTCAR:    PAW_PBE O 08Apr2002
 POTCAR:    PAW_PBE C 08Apr2002
 POTCAR:    PAW_PBE Ce 23Dec2003
   VRHFIN =Ce : [core= Kr 4d10]

   TITEL  = PAW_PBE Ce 23Dec2003
   POMASS =  140.115; ZVAL   =   12.000    mass and valenz
   ENMAX  =  273.042; ENMIN  =  204.781 eV

 POTCAR:    PAW_PBE O 08Apr2002
   VRHFIN =O: s2p4

   TITEL  = PAW_PBE O 08Apr2002
   POMASS =   16.000; ZVAL   =    6.000    mass and valenz
   ENMAX  =  400.000; ENMIN  =  300.000 eV

 POTCAR:    PAW_PBE Pt 04Feb2005
   VRHFIN =Pt: s1d9

   TITEL  = PAW_PBE Pt 04Feb2005
   POMASS =  195.080; ZVAL   =   10.000    mass and valenz
   ENMAX  =  230.283; ENMIN  =  172.712 eV

 POTCAR:    PAW_PBE O 08Apr2002
   VRHFIN =O: s2p4

[...]

 POTCAR:    PAW_PBE C 08Apr2002
   VRHFIN =C: s2p2

   TITEL  = PAW_PBE C 08Apr2002
   POMASS =   12.011; ZVAL   =    4.000    mass and valenz
   ENMAX  =  400.000; ENMIN  =  300.000 eV

 Optimization of the real space projectors (new method)

 maximal supplied QI-value         = 13.98
 optimisation between [QCUT,QGAM] = [ 10.21, 20.42] = [ 29.18,116.73] Ry
 Optimized for a Real-space Cutoff    1.65 Angstroem

   l    n(q)    QCUT    max X(q) W(low)/X(q) W(high)/X(q)  e(spline)
   0     10    10.208     8.553    0.18E-04    0.75E-05    0.12E-06
   0     10    10.208     8.106    0.26E-04    0.16E-04    0.24E-06
   1     10    10.208     4.160    0.93E-05    0.96E-06    0.75E-07
   1     10    10.208     3.597    0.23E-04    0.26E-04    0.15E-06
   2      9    10.208     8.183    0.11E-03    0.28E-03    0.51E-06
   2      9    10.208     6.077    0.74E-04    0.19E-03    0.37E-06
   3      9    10.208   116.013    0.19E-03    0.98E-05    0.18E-06
   3      9    10.208   108.937    0.19E-03    0.10E-04    0.18E-06
 Optimization of the real space projectors (new method)

[...]

   l    n(q)    QCUT    max X(q) W(low)/X(q) W(high)/X(q)  e(spline)
   0      9    10.150    20.381    0.17E-03    0.18E-03    0.41E-06
   0      9    10.150    15.268    0.18E-03    0.20E-03    0.43E-06
   1      9    10.150     5.964    0.16E-03    0.20E-03    0.36E-06
   1      9    10.150     5.382    0.13E-03    0.16E-03    0.33E-06
 Optimization of the real space projectors (new method)

 maximal supplied QI-value         = 25.13
 optimisation between [QCUT,QGAM] = [ 10.05, 20.36] = [ 28.30,116.06] Ry
 Optimized for a Real-space Cutoff    1.51 Angstroem

   l    n(q)    QCUT    max X(q) W(low)/X(q) W(high)/X(q)  e(spline)
   0      9    10.053   115.676    0.19E-03    0.21E-03    0.38E-06
   0      9    10.053    87.132    0.19E-03    0.21E-03    0.38E-06
   1      9    10.053     4.429    0.87E-04    0.11E-03    0.39E-06
   1      9    10.053     2.733    0.59E-04    0.62E-04    0.43E-06
  PAW_PBE Ce 23Dec2003                  :
  PAW_PBE O 08Apr2002                   :
  PAW_PBE Pt 04Feb2005                  :
  PAW_PBE O 08Apr2002                   :
  PAW_PBE C 08Apr2002                   :

 POSCAR: CeO2-110-l3-p23:
  positions in direct lattice
  velocities in cartesian coordinates
 exchange correlation table for  LEXCH =        8
   RHO(1)=    0.500       N(1)  =     2000
   RHO(2)=  100.500       N(2)  =     4000

 VTST: version 3.1, (03/28/14)

 CHAIN: initializing optimizer

 OPT: Using VASP QUASI-newton optimizer
 CHAIN: Read ICHAIN            0

 POSCAR: CeO2-110-l3-p23:
  positions in direct lattice
  velocities in cartesian coordinates

 ion  position               nearest neighbor table
   1  0.771  0.167  0.000-  37 2.38  41 2.38  40 2.38  45 2.38  53 2.38  55 2.38
   2  0.771  0.500  0.000-  37 2.38  39 2.38  41 2.38  47 2.38  59 2.38  60 2.38
   3  0.271  0.167  0.000-  42 2.38  46 2.38  44 2.38  38 2.38  51 2.38  52 2.38
   4  0.771  0.833  0.000-  39 2.38  47 2.38  45 2.38  40 2.38  50 2.38  54 2.38
   5  0.271  0.500  0.000-  42 2.38  43 2.38  46 2.38  48 2.38  57 2.38  58 2.38
   6  0.271  0.833  0.000-  43 2.38  48 2.38  44 2.38  38 2.38  49 2.38  56 2.38
   7  0.521  0.000  0.079-  67 2.36  61 2.37  51 2.38  55 2.38  49 2.38  50 2.38  44 2.38  45 2.38

   8  0.521  0.667  0.079-  62 2.37  63 2.38  49 2.38  50 2.38  57 2.38  60 2.38  39 2.38  43 2.38

[...]

  31  0.018  0.006  0.386-  96 2.23  86 2.23 103 2.27 101 2.27 102 2.31
  32  0.522  0.001  0.383-  89 2.24  99 2.24  91 2.29 104 2.32 100 2.32  97 2.35
  33  0.019  0.658  0.387-  87 2.24  92 2.24 105 2.28 107 2.28 102 2.36  98 2.50
  34  0.518  0.665  0.388- 110 2.21  93 2.29  90 2.34 106 2.35  97 2.39  99 2.46 109 2.48
  35  0.020  0.333  0.385-  94 2.23  95 2.25 107 2.31 105 2.33 103 2.34 101 2.35
  36  0.520  0.331  0.384- 109 2.20  85 2.25  88 2.28 104 2.34 100 2.35 106 2.35
  37  0.646  0.333  0.000-   1 2.38   2 2.38  10 2.38
  38  0.146  0.000  0.000-   3 2.38   6 2.38   9 2.38
  39  0.646  0.667  0.000-   4 2.38   2 2.38   8 2.38
  40  0.896  0.000  0.000-   1 2.38   4 2.38   9 2.38
  41  0.896  0.333  0.000-   1 2.38   2 2.38  11 2.38
  42  0.146  0.333  0.000-   3 2.38   5 2.38  11 2.38
  43  0.396  0.667  0.000-   6 2.38   5 2.38   8 2.38
  44  0.396  0.000  0.000-   3 2.38   6 2.38   7 2.38
  45  0.646  0.000  0.000-   1 2.38   4 2.38   7 2.38
  46  0.396  0.333  0.000-   3 2.38   5 2.38  10 2.38
  47  0.896  0.667  0.000-   4 2.38   2 2.38  12 2.38
  48  0.146  0.667  0.000-   6 2.38   5 2.38  12 2.38
  49  0.396  0.833  0.079-  18 2.37   8 2.38   7 2.38   6 2.38
  50  0.646  0.833  0.079-   8 2.38   7 2.38   4 2.38  14 2.39
  51  0.396  0.167  0.079-  10 2.38   7 2.38   3 2.38  15 2.38
  52  0.146  0.167  0.079-  11 2.38   9 2.38   3 2.38  15 2.38
  53  0.896  0.167  0.079-  13 2.38  11 2.38   9 2.38   1 2.38
  54  0.896  0.833  0.079-  12 2.38   9 2.38   4 2.38  14 2.39
  55  0.646  0.167  0.079-  10 2.38   7 2.38   1 2.38  13 2.39
  56  0.146  0.833  0.079-  18 2.37  12 2.38   9 2.38   6 2.38
  57  0.396  0.500  0.079-   8 2.38  10 2.38   5 2.38  17 2.38
  58  0.146  0.500  0.079-  11 2.38  12 2.38   5 2.38  17 2.39
  59  0.896  0.500  0.079-  11 2.38  12 2.38   2 2.38  16 2.39
  60  0.646  0.500  0.079-   8 2.38  10 2.38   2 2.38  16 2.39
  61  0.647  1.000  0.156-  23 2.33   7 2.37  13 2.37  14 2.38
  62  0.396  0.666  0.157-  20 2.37  17 2.37   8 2.37  18 2.37
  63  0.647  0.666  0.157-  20 2.35  16 2.37  14 2.37   8 2.38
  64  0.897  0.667  0.157-  19 2.35  14 2.37  12 2.38  16 2.38
  65  0.146  1.000  0.157-  22 2.35   9 2.37  15 2.37  18 2.38
  66  0.897  0.999  0.157-  22 2.34  14 2.38   9 2.38  13 2.38
  67  0.396  0.998  0.156-  23 2.34   7 2.36  18 2.37  15 2.39
  68  0.146  0.666  0.157-  19 2.36  17 2.37  18 2.37  12 2.38
  69  0.395  0.334  0.156-  24 2.34  10 2.36  17 2.37  15 2.39
  70  0.896  0.333  0.157-  21 2.34  11 2.37  13 2.37  16 2.38
  71  0.647  0.333  0.156-  24 2.34  10 2.37  13 2.37  16 2.38
  72  0.146  0.333  0.158-  21 2.33  15 2.38  17 2.39  11 2.39
  73  0.647  0.166  0.235-  13 2.35  23 2.37  24 2.38  26 2.42
  74  0.647  0.833  0.235-  14 2.34  20 2.38  23 2.38  30 2.46
  75  0.397  0.832  0.235-  28 2.33  18 2.38  20 2.38  23 2.40
  76  0.897  0.499  0.235-  16 2.36  21 2.37  19 2.37  25 2.48
  77  0.148  0.833  0.235-  18 2.36  22 2.38  19 2.39  28 2.40
  78  0.646  0.500  0.235-  20 2.36  16 2.36  24 2.39  25 2.44
  79  0.397  0.166  0.232-  15 2.31  24 2.37  23 2.37  29 2.48
  80  0.897  0.167  0.235-  13 2.36  21 2.36  22 2.38  26 2.43
  81  0.396  0.500  0.235-  17 2.35  20 2.38  24 2.38  27 2.43
  82  0.146  0.502  0.236-  19 2.36  17 2.39  21 2.40  27 2.41
  83  0.146  0.163  0.237-  22 2.35  15 2.39  29 2.40  21 2.42
  84  0.897  0.832  0.237-  19 2.36  22 2.37  14 2.39  30 2.44
  85  0.646  0.332  0.312-  36 2.25  26 2.37  25 2.37  24 2.39
  86  0.897  0.003  0.313-  31 2.23  26 2.36  22 2.39  30 2.42
  87  0.145  0.673  0.316-  33 2.24  28 2.37  19 2.43  27 2.47
  88  0.395  0.326  0.310-  36 2.28  29 2.33  24 2.35  27 2.41
  89  0.648  0.999  0.312-  32 2.24  26 2.37  30 2.38  23 2.39
  90  0.647  0.667  0.313-  34 2.34  25 2.36  30 2.36  20 2.37
[...]
  98  0.152  0.826  0.407- 108 1.94  33 2.50
  99  0.402  0.846  0.385-  32 2.24  28 2.25  34 2.46
 100  0.401  0.164  0.390-  29 2.30  32 2.32  36 2.35
 101  0.137  0.165  0.391-  31 2.27  35 2.35  29 2.36
 102  0.914  0.834  0.389-  31 2.31  30 2.35  33 2.36
 103  0.901  0.166  0.392-  31 2.27  35 2.34  26 2.36
 104  0.640  0.165  0.389-  26 2.31  32 2.32  36 2.34
 105  0.901  0.498  0.393-  33 2.28  35 2.33  25 2.36
 106  0.639  0.498  0.390-  25 2.29  34 2.35  36 2.35
 107  0.137  0.497  0.389-  33 2.28  35 2.31  27 2.34
 108  0.250  0.769  0.467- 112 1.83  98 1.94 110 1.95
 109  0.401  0.483  0.385-  36 2.20  27 2.22  34 2.48
 110  0.378  0.656  0.452- 108 1.95  34 2.21
 111  0.330  0.705  0.579- 112 1.16
 112  0.297  0.733  0.536- 111 1.16 108 1.83

IMPORTANT INFORMATION: All symmetrisations will be switched off!
NOSYMM: (Re-)initialisation of all symmetry stuff for point group C_1.

 KPOINTS: CeO2-111-3x3-9layers         ! Comment

Automatic generation of k-mesh.
Space group operators:
 irot       det(A)        alpha          n_x          n_y          n_z        tau_x        tau_y        tau_z
    1     1.000000     0.000000     1.000000     0.000000     0.000000     0.000000     0.000000     0.000000

 Subroutine IBZKPT returns following result:

 Found      1 irreducible k-points:

 Following reciprocal coordinates:
            Coordinates               Weight
  0.000000  0.000000  0.000000      1.000000

 Following cartesian coordinates:
            Coordinates               Weight
  0.000000  0.000000  0.000000      1.000000

 I would recommend the setting:
   dimension x,y,z NGX =    72 NGY =   76 NGZ =  161
 SYSTEM =  unknown system
 POSCAR =  CeO2-110-l3-p23:

 Startparameter for this run:
   NWRITE =      2    write-flag & timer
   PREC   = accura    normal or accurate (medium, high low for compatibility)
   ISTART =      1    job   : 0-new  1-cont  2-samecut
   ICHARG =      0    charge: 1-file 2-atom 10-const
   ISPIN  =      2    spin polarized calculation?
   LNONCOLLINEAR =      F non collinear calculations
   LSORBIT =      F    spin-orbit coupling
   INIWAV =      1    electr: 0-lowe 1-rand  2-diag
   LASPH  =      T    aspherical Exc in radial PAW
   METAGGA=      F    non-selfconsistent MetaGGA calc.

 Electronic Relaxation 1
   ENCUT  =  400.0 eV  29.40 Ry    5.42 a.u.  17.91 18.99 40.29*2*pi/ulx,y,z
   ENINI  =  400.0     initial cutoff
   ENAUG  =  644.9 eV  augmentation charge cutoff
   NELM   =    100;   NELMIN=  2; NELMDL=  0     # of ELM steps
   EDIFF  = 0.1E-03   stopping-criterion for ELM
   LREAL  =      T    real-space projection
   NLSPLINE    = F    spline interpolate recip. space projectors
   LCOMPAT=      F    compatible to vasp.4.4
   GGA_COMPAT  = T    GGA compatible to vasp.4.4-vasp.4.6
   LMAXPAW     = -100 max onsite density
   LMAXMIX     =    6 max onsite mixed and CHGCAR
   VOSKOWN=      0    Vosko Wilk Nusair interpolation
   ROPT   =   -0.00025  -0.00025  -0.00025  -0.00025
   ROPT   =   -0.00025
 Ionic relaxation
[...]
   -.225E+03 0.279E+02 -.288E+04   0.223E+03 -.280E+02 0.288E+04   0.216E+01 0.139E+00 0.158E+01   -.285E-01 -.174E-01 -.548E-01
   0.277E+02 0.391E+02 -.306E+04   -.278E+02 -.387E+02 0.306E+04   0.107E+00 -.399E+00 0.607E+01   0.336E-02 -.256E-02 0.380E-02
   -.503E+02 0.638E+02 -.305E+04   0.496E+02 -.623E+02 0.305E+04   0.757E+00 -.148E+01 0.553E+01   -.134E-01 -.561E-02 0.382E-02
   0.672E+02 -.129E-01 0.161E+04   -.733E+02 0.172E-01 -.162E+04   0.721E+01 -.126E-01 0.503E+01   -.344E-02 0.169E-02 0.813E-03
   0.691E+02 -.739E+00 0.161E+04   -.752E+02 0.735E+00 -.161E+04   0.717E+01 -.840E-02 0.510E+01   -.244E-02 0.794E-02 0.109E-02
   0.671E+02 0.271E+00 0.161E+04   -.731E+02 -.279E+00 -.161E+04   0.719E+01 0.308E-02 0.505E+01   0.183E-02 0.600E-02 0.457E-03
   -.681E+02 -.323E+00 0.161E+04   0.741E+02 0.325E+00 -.161E+04   -.716E+01 0.123E-01 0.509E+01   -.672E-03 -.761E-02 0.755E-03
   -.684E+02 0.396E-01 0.161E+04   0.744E+02 -.331E-01 -.161E+04   -.715E+01 -.164E-01 0.511E+01   0.349E-02 0.172E-02 0.887E-03
   0.688E+02 0.131E+00 0.161E+04   -.749E+02 -.125E+00 -.161E+04   0.716E+01 -.962E-02 0.510E+01   0.179E-02 -.154E-02 0.593E-03
   -.682E+02 0.567E+00 0.161E+04   0.742E+02 -.570E+00 -.161E+04   -.721E+01 0.189E-01 0.507E+01   0.336E-02 -.647E-02 0.981E-03
   -.680E+02 -.660E+00 0.161E+04   0.741E+02 0.659E+00 -.162E+04   -.721E+01 -.127E-01 0.505E+01   0.247E-02 0.797E-02 0.987E-03
   0.670E+02 -.261E+00 0.161E+04   -.730E+02 0.264E+00 -.162E+04   0.720E+01 0.776E-02 0.503E+01   0.642E-03 -.759E-02 0.742E-03
   -.677E+02 0.942E-01 0.161E+04   0.738E+02 -.885E-01 -.162E+04   -.721E+01 -.884E-02 0.504E+01   -.180E-02 -.154E-02 0.423E-03
   -.680E+02 0.283E+00 0.161E+04   0.740E+02 -.290E+00 -.161E+04   -.716E+01 0.246E-02 0.509E+01   -.177E-02 0.597E-02 0.483E-03
   0.691E+02 0.610E+00 0.161E+04   -.751E+02 -.612E+00 -.161E+04   0.717E+01 0.156E-01 0.510E+01   -.343E-02 -.645E-02 0.999E-03
   -.596E+01 0.102E+01 0.998E+03   0.664E+01 -.950E+00 -.997E+03   -.105E+01 -.121E+00 -.846E+00   0.403E-02 0.685E-04 0.530E-02
   0.163E+01 0.755E+00 0.994E+03   -.208E+01 -.708E+00 -.993E+03   0.813E+00 -.766E-01 -.928E+00   0.317E-02 0.804E-04 -.325E-02
   -.349E+01 -.104E+01 0.996E+03   0.404E+01 0.110E+01 -.995E+03   -.904E+00 -.884E-01 -.834E+00   -.134E-02 -.746E-05 -.142E-02
   0.643E+01 -.187E+01 0.992E+03   -.691E+01 0.189E+01 -.992E+03   0.813E+00 -.631E-02 -.896E+00   0.132E-02 0.175E-03 -.138E-02
   -.597E+01 0.368E+00 0.993E+03   0.650E+01 -.348E+00 -.992E+03   -.857E+00 -.474E-01 -.770E+00   0.239E-02 -.553E-03 0.356E-02
   -.393E+01 -.442E-01 0.992E+03   0.437E+01 0.816E-01 -.991E+03   -.772E+00 -.492E-01 -.911E+00   -.308E-02 0.682E-04 -.344E-02
   0.277E+01 -.369E+00 0.995E+03   -.330E+01 0.382E+00 -.994E+03   0.900E+00 -.193E-01 -.926E+00   -.238E-02 -.651E-03 0.355E-02
   0.824E+01 0.127E+00 0.995E+03   -.890E+01 -.730E-01 -.995E+03   0.101E+01 -.794E-01 -.773E+00   -.399E-02 0.248E-03 0.546E-02
   -.362E+01 0.150E+00 0.995E+03   0.414E+01 -.188E+00 -.995E+03   -.898E+00 0.713E-01 -.916E+00   -.474E-03 -.311E-03 -.509E-03
   0.596E+01 0.183E+01 0.992E+03   -.643E+01 -.182E+01 -.991E+03   0.820E+00 -.489E-01 -.889E+00   0.388E-03 -.596E-03 -.329E-03
   -.476E+01 -.241E+00 0.992E+03   0.519E+01 0.238E+00 -.991E+03   -.768E+00 0.161E-01 -.886E+00   0.131E-02 0.373E-03 0.163E-02
   0.220E+01 -.259E+00 0.993E+03   -.266E+01 0.254E+00 -.993E+03   0.817E+00 0.110E-01 -.984E+00   -.114E-02 0.420E-03 0.162E-02
[...]
   -.783E+01 -.713E+02 -.144E+04   0.526E+01 0.699E+02 0.144E+04   0.255E+01 0.142E+01 -.702E+01   -.878E-02 -.692E-02 -.103E-01
   0.672E+02 -.168E+02 -.159E+04   -.718E+02 0.169E+02 0.160E+04   0.454E+01 -.152E+00 -.783E+01   -.135E-02 0.456E-02 0.705E-03
   -.755E+02 -.229E+02 -.158E+04   0.812E+02 0.237E+02 0.159E+04   -.568E+01 -.777E+00 -.708E+01   -.171E-02 -.574E-02 0.770E-03
   0.101E+03 -.115E+02 -.154E+04   -.104E+03 0.109E+02 0.155E+04   0.320E+01 0.538E+00 -.635E+01   0.689E-02 0.481E-03 0.169E-02
   0.984E+02 -.150E+02 -.160E+04   -.104E+03 0.162E+02 0.161E+04   0.601E+01 -.116E+01 -.731E+01   0.619E-02 -.544E-02 -.686E-04
   -.884E+02 -.925E+01 -.160E+04   0.930E+02 0.958E+01 0.161E+04   -.461E+01 -.336E+00 -.779E+01   0.551E-02 0.961E-03 -.241E-03
   0.108E+03 0.281E+02 -.160E+04   -.114E+03 -.289E+02 0.160E+04   0.592E+01 0.844E+00 -.737E+01   0.306E-02 0.507E-02 0.183E-02
   -.106E+03 0.280E+02 -.158E+04   0.110E+03 -.281E+02 0.159E+04   -.385E+01 0.702E-01 -.778E+01   0.611E-02 0.116E-01 -.889E-02
   -.447E+02 0.650E+02 -.154E+04   0.506E+02 -.653E+02 0.154E+04   -.588E+01 0.227E+00 -.722E+01   0.125E-01 0.638E-02 0.785E-02
   0.147E+03 -.156E+03 -.252E+04   -.145E+03 0.153E+03 0.253E+04   -.233E+01 0.329E+01 -.464E+01   0.508E-01 -.105E+00 -.969E-01
   0.415E+02 0.633E+02 -.150E+04   -.453E+02 -.600E+02 0.151E+04   0.380E+01 -.323E+01 -.887E+01   -.138E-01 -.322E-03 0.886E-02
   -.756E+02 0.162E+03 -.157E+04   0.830E+02 -.182E+03 0.158E+04   -.700E+01 0.199E+02 -.169E+01   -.158E+00 -.306E-01 -.598E-01
   -.792E+02 0.693E+02 -.118E+04   0.981E+02 -.865E+02 0.123E+04   -.192E+02 0.174E+02 -.550E+02   0.141E+00 -.139E+00 -.495E-01
   0.456E+02 -.474E+02 -.772E+03   -.496E+02 0.514E+02 0.758E+03   0.395E+01 -.393E+01 0.139E+02   0.439E-01 -.552E-01 0.861E-02
   0.134E+02 -.252E+02 0.492E+02   -.213E-12 -.568E-13 0.292E-10   -.136E+02 0.256E+02 -.490E+02   0.122E+00 -.351E+00 -.189E+00

 POSITION                                       TOTAL-FORCE (eV/Angst)
      8.46781      1.94101      0.00000        -0.032850      0.001867      2.504461
      8.46781      5.82303      0.00000        -0.024783      0.003036      2.532384
      2.97781      1.94101      0.00000         0.023585      0.007569      2.508777
      8.46781      9.70504      0.00000        -0.021817     -0.005380      2.530065
      2.97781      5.82303      0.00000         0.024621     -0.004799      2.521815
      2.97781      9.70504      0.00000         0.019136     -0.003062      2.474047
      5.72281      0.00000      1.94101         0.033667     -0.015517     -1.065417
      5.72281      7.76403      1.94101         0.039561     -0.036845     -0.952062
      0.23281      0.00000      1.94101        -0.007173     -0.022934     -0.945628
      5.72281      3.88202      1.94101         0.009883      0.026110     -1.026015
      0.23281      3.88202      1.94101         0.018511      0.023327     -0.950561
      0.23281      7.76403      1.94101        -0.020847     -0.026424     -0.933024
      8.47468      1.94040      3.88678         0.001583      0.001225      0.000944
      8.47012      9.69638      3.89738         0.000049     -0.003883      0.000208
      2.97879      1.93159      3.88856         0.001556      0.002730     -0.002478
      8.47114      5.82225      3.89648         0.000478      0.002433      0.002311
      2.98019      5.82611      3.89312         0.002361      0.000403      0.002295
      2.97816      9.69516      3.87423         0.002958     -0.003251      0.007707
      0.22796      7.75850      5.79785         0.000299      0.000572      0.002241
      5.74058      7.74794      5.78883        -0.000415     -0.001107      0.007448
      0.22661      3.87875      5.78095         0.000118      0.002154      0.000126
      0.23126     11.63140      5.78444         0.001756     -0.001346      0.001525
      5.74103      0.00115      5.74513        -0.001565     -0.003863      0.002979
      5.71767      3.87028      5.75161        -0.002699      0.004520      0.001086
      8.42800      5.81904      7.84585        -0.007311      0.003328      0.005820
      8.45818      1.94150      7.80592        -0.003460      0.003515     -0.000517
      2.98596      5.79440      7.80892         0.003818      0.003579     -0.005273
      3.04708      9.70037      7.73149         0.004786     -0.003418     -0.005271
      2.98131      1.91858      7.80937        -0.001728     -0.000757     -0.001260
      8.46600      9.68783      7.85201        -0.007182     -0.005551      0.006492
      0.19484      0.07472      9.53884        -0.002656     -0.001490      0.009179
      5.73375      0.01350      9.47210        -0.005994     -0.007105     -0.000063
      0.20686      7.66112      9.55333        -0.008411      0.002443      0.002195
      5.68668      7.74799      9.59094        -0.002540     -0.004191      0.003316
      0.21960      3.87390      9.51075        -0.004826      0.004604      0.000636
      5.70710      3.85063      9.47784        -0.006396      0.009795     -0.001616
      7.09531      3.88202      0.00000         1.153280     -0.006651     -0.476462
      1.60531      0.00000      0.00000         1.135151     -0.004277     -0.449090
      7.09531      7.76403      0.00000         1.145350      0.001930     -0.468646
      9.84031      0.00000      0.00000        -1.130564      0.005784     -0.450896
      9.84031      3.88202      0.00000        -1.125353     -0.008303     -0.443426
      1.60531      3.88202      0.00000         1.130119     -0.005054     -0.449346
      4.35031      7.76403      0.00000        -1.150191      0.009285     -0.465087
      4.35031      0.00000      0.00000        -1.153400     -0.006139     -0.469571
      7.09531      0.00000      0.00000         1.150280      0.003686     -0.474219
      4.35031      3.88202      0.00000        -1.154985     -0.004759     -0.474311
      9.84031      7.76403      0.00000        -1.130899      0.001543     -0.451635
      1.60531      7.76403      0.00000         1.135868      0.007737     -0.448975
      4.35031      9.70504      1.94101        -0.365861     -0.051981     -0.393458
      7.09531      9.70504      1.94101         0.363702     -0.029175     -0.313102
      4.35031      1.94101      1.94101        -0.361194     -0.028937     -0.319893
      1.60531      1.94101      1.94101         0.331659      0.014698     -0.322272
      9.84031      1.94101      1.94101        -0.327721     -0.028441     -0.310261
      9.84031      9.70504      1.94101        -0.341935     -0.011728     -0.309874
      7.09531      1.94101      1.94101         0.367512     -0.006869     -0.342482
      1.60531      9.70504      1.94101         0.349110     -0.025480     -0.345256
      4.35031      5.82303      1.94101        -0.373926      0.032638     -0.348745
      1.60531      5.82303      1.94101         0.351500     -0.034819     -0.296001
      9.84031      5.82303      1.94101        -0.333661      0.013207     -0.304701
      7.09531      5.82303      1.94101         0.364090      0.006521     -0.333102
[...]
      1.66916      9.61862     10.06484        -0.028328     -0.004736      0.035985
      4.40971      9.84814      9.51571        -0.027528     -0.007140      0.011044
      4.39897      1.90893      9.62469        -0.003790     -0.002237      0.000487
      1.50908      1.91977      9.64791        -0.002523      0.003261     -0.002259
     10.03341      9.71755      9.60089        -0.008206      0.002585     -0.003861
      9.89327      1.93878      9.68411        -0.003724      0.001528      0.001057
      7.03019      1.92582      9.61970        -0.006978     -0.001228      0.000335
      9.89017      5.79432      9.70275        -0.001109     -0.002921     -0.000305
      7.01084      5.80382      9.64062        -0.002699     -0.014113      0.004194
      1.50275      5.78903      9.62180        -0.002133      0.004510      0.003244
      2.74740      8.95194     11.53638         0.041638     -0.022509     -0.032914
      4.40806      5.62172      9.51024        -0.008743      0.014539     -0.003421
      4.14361      7.63521     11.16842         0.211007      0.095247      0.158580
      3.62553      8.20947     14.29296        -0.100652      0.090343      0.056266
      3.26521      8.53455     13.23660        -0.057645      0.034472     -0.016963
    total drift:                               -0.070201      0.002870      0.030236

  FREE ENERGIE OF THE ION-ELECTRON SYSTEM (eV)
  free  energy   TOTEN  =      -911.55705506 eV

  energy  without entropy=     -911.55705506  energy(sigma->0) =     -911.55705506

 d Force =-0.1863611E-01[-0.186E-01,-0.186E-01]  d Energy =-0.1851554E-01-0.121E-03
 d Force =-0.5477687E+02[-0.546E+02,-0.550E+02]  d Ewald  =-0.5477623E+02-0.636E-03

 stress matrix after NEB project (eV)
    -72.49709     -0.10684     -0.64042
     -0.10684   -124.95522      2.19978
     -0.64040      2.19976    -66.29289
  FORCES: max atom, RMS     0.280612    0.031913
  FORCE total and by dimension    0.337731    0.211007
  Stress total and by dimension  158.980825  124.955221
 Quasi-Newton relaxation of ions (Broydens 2nd method)
  g(Force)  = 0.110E-02   g(Stress)= 0.000E+00

 retain information from N=  1 steps
 eigenvalues of (default step * inverse Hessian matrix)
  average eigenvalue of G=   1.3035
 eigenvalue spectrum of G is  1.3035

 writing wavefunctions

 total charge

[...]

 magnetization (x)

# of ion     s       p       d       f       tot
  1       -0.000   0.000   0.000   0.000  -0.000
  2       -0.000  -0.000  -0.000  -0.000  -0.000
  3        0.000  -0.000  -0.000   0.000   0.000
  4       -0.000   0.000  -0.000  -0.000  -0.000
  5        0.000  -0.000  -0.000   0.000   0.000
  6       -0.000   0.000   0.000  -0.000  -0.000
  7        0.000   0.000  -0.000   0.000   0.000
  8        0.000   0.000   0.000   0.000   0.000
  9        0.000  -0.000   0.000   0.000   0.000
 10        0.000   0.000  -0.000  -0.000  -0.000
 11        0.000  -0.000  -0.000   0.000   0.000
 12       -0.000   0.000  -0.000   0.000  -0.000
 13       -0.000  -0.000   0.000   0.000   0.000
 14        0.000   0.000   0.000   0.000   0.000
 15       -0.000   0.000  -0.000   0.000  -0.000
 16        0.000  -0.000  -0.000   0.000   0.000
 17        0.000  -0.000  -0.000   0.000   0.000
 18        0.000  -0.000  -0.000   0.000   0.000
 19        0.000  -0.000   0.000  -0.000   0.000
 20        0.000  -0.000   0.000   0.000   0.000
 21        0.000   0.000  -0.000  -0.000   0.000
 22       -0.000   0.000   0.000   0.000   0.000
 23       -0.000   0.000   0.000   0.000  -0.000
 24       -0.000   0.000   0.000   0.000  -0.000
 25       -0.000   0.000   0.000   0.000   0.000
 26        0.000  -0.000   0.000  -0.000   0.000
 27        0.000  -0.000  -0.000   0.000   0.000
 28        0.000  -0.000  -0.000  -0.000  -0.000
 29       -0.000  -0.000   0.000  -0.000  -0.000
 30        0.000   0.000   0.000   0.000   0.000
 31        0.000   0.000   0.000   0.000   0.000
 32        0.000  -0.000   0.000  -0.000   0.000
 33        0.000  -0.000  -0.000  -0.000  -0.000
 34        0.000  -0.000   0.000   0.000   0.000
 35        0.000  -0.000  -0.000  -0.000  -0.000
 36       -0.000  -0.000   0.000   0.000   0.000
 37        0.000  -0.000   0.000   0.000   0.000
 38        0.000   0.000   0.000   0.000   0.000
 39        0.000   0.000   0.000   0.000   0.000
 40       -0.000  -0.000   0.000   0.000  -0.000
 41        0.000  -0.000   0.000   0.000  -0.000
 42       -0.000   0.000   0.000   0.000   0.000
 43        0.000   0.000   0.000   0.000   0.000
 44       -0.000  -0.000   0.000   0.000  -0.000
 45        0.000   0.000   0.000   0.000   0.000
 46       -0.000  -0.000   0.000   0.000  -0.000
 47        0.000   0.000   0.000   0.000   0.000
 48        0.000  -0.000   0.000   0.000  -0.000
 49        0.000  -0.000   0.000   0.000  -0.000
 50        0.000   0.000   0.000   0.000   0.000
 51        0.000  -0.000   0.000   0.000  -0.000
 52        0.000   0.000   0.000   0.000   0.000
 53        0.000  -0.000   0.000   0.000  -0.000
 54       -0.000  -0.000   0.000   0.000  -0.000
 55       -0.000  -0.000   0.000   0.000  -0.000
 56       -0.000   0.000   0.000   0.000   0.000
 57       -0.000  -0.000   0.000   0.000  -0.000
 58       -0.000  -0.000   0.000   0.000  -0.000
 59       -0.000   0.000   0.000   0.000   0.000
 60        0.000   0.000   0.000   0.000   0.000
[...]
 98        0.000   0.000   0.000   0.000   0.000
 99        0.000   0.000   0.000   0.000   0.000
100        0.000  -0.000   0.000   0.000  -0.000
101       -0.000  -0.000   0.000   0.000  -0.000
102       -0.000   0.000   0.000   0.000   0.000
103       -0.000  -0.000   0.000   0.000  -0.000
104       -0.000  -0.000   0.000   0.000  -0.000
105       -0.000   0.000   0.000   0.000   0.000
106       -0.000  -0.000   0.000   0.000  -0.000
107        0.000   0.000   0.000   0.000   0.000
108        0.000   0.000   0.000   0.000   0.000
109       -0.000  -0.000   0.000   0.000  -0.000
110       -0.000  -0.000   0.000   0.000  -0.000
111       -0.000   0.000   0.000   0.000   0.000
112       -0.000  -0.000   0.000   0.000  -0.000
tot        0.000  -0.000   0.000   0.000   0.000