 vasp.5.3.5 31Mar14 (build May 27 2014 14:39:49) gamma-only

 executed on           LinuxIFORT date 2020.11.23  08:27:07

 INCAR:
 POTCAR:    PAW_PBE Ce 23Dec2003
 POTCAR:    PAW_PBE O 08Apr2002
 POTCAR:    PAW_PBE Pt 04Feb2005
 POTCAR:    PAW_PBE Ce 23Dec2003
   VRHFIN =Ce : [core= Kr 4d10]

   TITEL  = PAW_PBE Ce 23Dec2003
   POMASS =  140.115; ZVAL   =   12.000    mass and valenz
   ENMAX  =  273.042; ENMIN  =  204.781 eV

 POTCAR:    PAW_PBE O 08Apr2002
   VRHFIN =O: s2p4

   TITEL  = PAW_PBE O 08Apr2002
   POMASS =   16.000; ZVAL   =    6.000    mass and valenz
   ENMAX  =  400.000; ENMIN  =  300.000 eV

 POTCAR:    PAW_PBE Pt 04Feb2005
   VRHFIN =Pt: s1d9

   TITEL  = PAW_PBE Pt 04Feb2005
   POMASS =  195.080; ZVAL   =   10.000    mass and valenz
   ENMAX  =  230.283; ENMIN  =  172.712 eV

 Optimization of the real space projectors (new method)

 maximal supplied QI-value         = 13.98
 optimisation between [QCUT,QGAM] = [ 10.21, 20.42] = [ 29.18,116.73] Ry
 Optimized for a Real-space Cutoff    1.65 Angstroem

   l    n(q)    QCUT    max X(q) W(low)/X(q) W(high)/X(q)  e(spline)
   0     10    10.208     8.553    0.18E-04    0.75E-05    0.12E-06
   0     10    10.208     8.106    0.26E-04    0.16E-04    0.24E-06
   1     10    10.208     4.160    0.93E-05    0.96E-06    0.75E-07
   1     10    10.208     3.597    0.23E-04    0.26E-04    0.15E-06
   2      9    10.208     8.183    0.11E-03    0.28E-03    0.51E-06
   2      9    10.208     6.077    0.74E-04    0.19E-03    0.37E-06
   3      9    10.208   116.013    0.19E-03    0.98E-05    0.18E-06
   3      9    10.208   108.937    0.19E-03    0.10E-04    0.18E-06
 Optimization of the real space projectors (new method)

[...]

   l    n(q)    QCUT    max X(q) W(low)/X(q) W(high)/X(q)  e(spline)
   0      9    10.150    20.381    0.17E-03    0.18E-03    0.41E-06
   0      9    10.150    15.268    0.18E-03    0.20E-03    0.43E-06
   1      9    10.150     5.964    0.16E-03    0.20E-03    0.36E-06
   1      9    10.150     5.382    0.13E-03    0.16E-03    0.33E-06
 Optimization of the real space projectors (new method)

 maximal supplied QI-value         = 14.36
 optimisation between [QCUT,QGAM] = [ 10.20, 20.39] = [ 29.12,116.47] Ry
 Optimized for a Real-space Cutoff    1.55 Angstroem

   l    n(q)    QCUT    max X(q) W(low)/X(q) W(high)/X(q)  e(spline)
   2      9    10.197    66.195    0.14E-03    0.26E-03    0.16E-06
   2      9    10.197    64.643    0.14E-03    0.26E-03    0.16E-06
   0      9    10.197    95.520    0.52E-04    0.23E-04    0.61E-07
   0      9    10.197    63.403    0.50E-04    0.22E-04    0.58E-07
   1      9    10.197    19.961    0.18E-03    0.80E-04    0.90E-07
   1      9    10.197    13.289    0.15E-03    0.68E-04    0.78E-07
  PAW_PBE Ce 23Dec2003                  :
  PAW_PBE O 08Apr2002                   :
  PAW_PBE Pt 04Feb2005                  :

 POSCAR: CeO2-110-l3-p23:
  positions in direct lattice
 exchange correlation table for  LEXCH =        8
   RHO(1)=    0.500       N(1)  =     2000
   RHO(2)=  100.500       N(2)  =     4000

 VTST: version 3.1, (03/28/14)

 CHAIN: initializing optimizer

 OPT: Using VASP Conjugate-Gradient optimizer
 CHAIN: Read ICHAIN            0

 POSCAR: CeO2-110-l3-p23:
  positions in direct lattice

 ion  position               nearest neighbor table
   1  0.771  0.167  0.000-  37 2.38  41 2.38  40 2.38  45 2.38  53 2.38  55 2.38
   2  0.771  0.500  0.000-  37 2.38  39 2.38  41 2.38  47 2.38  59 2.38  60 2.38
   3  0.271  0.167  0.000-  42 2.38  46 2.38  44 2.38  38 2.38  51 2.38  52 2.38
   4  0.771  0.833  0.000-  39 2.38  47 2.38  45 2.38  40 2.38  50 2.38  54 2.38
   5  0.271  0.500  0.000-  42 2.38  43 2.38  46 2.38  48 2.38  57 2.38  58 2.38
   6  0.271  0.833  0.000-  43 2.38  48 2.38  44 2.38  38 2.38  49 2.38  56 2.38
   7  0.521  0.000  0.079-  61 2.36  50 2.38  51 2.38  55 2.38  49 2.38  45 2.38  44 2.38  67 2.38

   8  0.521  0.667  0.079-  62 2.37  63 2.37  49 2.38  50 2.38  57 2.38  60 2.38  39 2.38  43 2.38

[...]

  27  0.271  0.505  0.316-  95 2.34  88 2.34  87 2.38  93 2.38  81 2.41  82 2.41 105 2.52 108 2.53
                           109 3.23
  28  0.271  0.826  0.314-  96 2.35  91 2.35  87 2.36  93 2.36  75 2.40  77 2.40  99 2.49  98 2.50
                           109 3.20
  29  0.271  0.166  0.319- 101 2.28 100 2.29  83 2.41  79 2.42  88 2.44  95 2.44  91 2.48  96 2.48

[...]

  31  0.017  0.006  0.386- 103 2.20 101 2.22  96 2.23  86 2.26 102 2.29
  32  0.525  0.005  0.385- 104 2.21 100 2.22  91 2.23  89 2.26  97 2.29
  33  0.007  0.668  0.384- 106 2.21  92 2.23 108 2.29  98 2.29 102 2.30  87 2.34 109 3.05
  34  0.536  0.669  0.384- 107 2.21  90 2.23 105 2.29  99 2.30  97 2.30  93 2.34 109 3.04
  35  0.018  0.330  0.390-  95 2.30  94 2.33 103 2.39 106 2.42 101 2.45
  36  0.525  0.330  0.390-  88 2.31  85 2.33 104 2.39 107 2.43 100 2.45
  37  0.646  0.333  0.000-   1 2.38   2 2.38  10 2.38
  38  0.146  0.000  0.000-   3 2.38   6 2.38   9 2.38
  39  0.646  0.667  0.000-   4 2.38   2 2.38   8 2.38
  40  0.896  0.000  0.000-   1 2.38   4 2.38   9 2.38
  41  0.896  0.333  0.000-   1 2.38   2 2.38  11 2.38
  42  0.146  0.333  0.000-   3 2.38   5 2.38  11 2.38
  43  0.396  0.667  0.000-   6 2.38   5 2.38   8 2.38
  44  0.396  0.000  0.000-   3 2.38   6 2.38   7 2.38
  45  0.646  0.000  0.000-   1 2.38   4 2.38   7 2.38
  46  0.396  0.333  0.000-   3 2.38   5 2.38  10 2.38
  47  0.896  0.667  0.000-   4 2.38   2 2.38  12 2.38
  48  0.146  0.667  0.000-   6 2.38   5 2.38  12 2.38
  49  0.396  0.833  0.079-   8 2.38   7 2.38   6 2.38  18 2.38
  50  0.646  0.833  0.079-  14 2.37   8 2.38   7 2.38   4 2.38
  51  0.396  0.167  0.079-  10 2.38   7 2.38   3 2.38  15 2.40
  52  0.146  0.167  0.079-  11 2.38   9 2.38   3 2.38  15 2.40
  53  0.896  0.167  0.079-  11 2.38   9 2.38   1 2.38  13 2.39
  54  0.896  0.833  0.079-  14 2.37  12 2.38   9 2.38   4 2.38
  55  0.646  0.167  0.079-  10 2.38   7 2.38   1 2.38  13 2.39
  56  0.146  0.833  0.079-  12 2.38   9 2.38   6 2.38  18 2.38
  57  0.396  0.500  0.079-   8 2.38  10 2.38   5 2.38  17 2.39
  58  0.146  0.500  0.079-  11 2.38  12 2.38   5 2.38  17 2.39
  59  0.896  0.500  0.079-  11 2.38  12 2.38   2 2.38  16 2.38
  60  0.646  0.500  0.079-   8 2.38  10 2.38   2 2.38  16 2.38
  61  0.646  0.001  0.157-  23 2.35   7 2.36  14 2.37  13 2.38
  62  0.396  0.666  0.157-  20 2.34   8 2.37  18 2.38  17 2.38
  63  0.647  0.667  0.156-  20 2.32   8 2.37  14 2.39  16 2.39
  64  0.895  0.667  0.157-  19 2.32  12 2.37  14 2.39  16 2.39
  65  0.147  0.002  0.157-  22 2.33  15 2.36   9 2.39  18 2.39
  66  0.897  0.001  0.157-  22 2.35   9 2.36  14 2.37  13 2.38
  67  0.396  0.002  0.157-  23 2.33  15 2.36   7 2.38  18 2.39
  68  0.147  0.666  0.157-  19 2.34  12 2.37  18 2.38  17 2.38
  69  0.396  0.332  0.158-  15 2.35  24 2.36  17 2.38  10 2.39
  70  0.897  0.334  0.157-  16 2.36  11 2.37  13 2.37  21 2.39
  71  0.646  0.334  0.157-  16 2.36  10 2.37  13 2.37  24 2.38
  72  0.147  0.331  0.158-  15 2.35  21 2.36  17 2.38  11 2.39
  73  0.645  0.167  0.235-  13 2.35  24 2.37  23 2.38  26 2.44
  74  0.646  0.836  0.234-  14 2.36  23 2.36  30 2.39  20 2.40
  75  0.395  0.833  0.234-  18 2.35  23 2.38  20 2.39  28 2.40
  76  0.897  0.498  0.235-  21 2.36  16 2.37  19 2.38  25 2.41
  77  0.147  0.833  0.234-  18 2.35  22 2.38  19 2.39  28 2.40
  78  0.645  0.499  0.235-  24 2.37  16 2.37  20 2.38  25 2.41
  79  0.396  0.166  0.239-  23 2.37  24 2.38  15 2.41  29 2.42
  80  0.897  0.167  0.235-  13 2.35  21 2.37  22 2.38  26 2.45
  81  0.395  0.499  0.235-  17 2.35  24 2.37  20 2.40  27 2.41
  82  0.147  0.499  0.235-  17 2.35  21 2.37  19 2.40  27 2.41
  83  0.147  0.166  0.239-  22 2.37  21 2.38  29 2.41  15 2.42
  84  0.897  0.836  0.234-  14 2.36  22 2.36  30 2.39  19 2.40
  85  0.647  0.331  0.313-  36 2.33  26 2.34  24 2.37  25 2.37
  86  0.897  0.003  0.311-  31 2.26  22 2.36  26 2.36  30 2.37
  87  0.139  0.666  0.310-  19 2.32  33 2.34  28 2.36  27 2.38
  88  0.394  0.340  0.317-  36 2.31  27 2.34  29 2.44  24 2.45
  89  0.646  0.003  0.311-  32 2.26  23 2.36  26 2.37  30 2.37
  90  0.652  0.670  0.310-  34 2.23  30 2.36  20 2.38  25 2.40
[...]
  95  0.148  0.341  0.318-  35 2.30  27 2.34  29 2.44  21 2.45
  96  0.146  0.989  0.316-  31 2.23  28 2.35  22 2.44  29 2.48
  97  0.639  0.840  0.389-  32 2.29  34 2.30  30 2.36
  98  0.151  0.807  0.400- 109 2.14  33 2.29  28 2.50
  99  0.392  0.807  0.399- 109 2.14  34 2.30  28 2.49
 100  0.400  0.155  0.392-  32 2.22  29 2.29  36 2.45
 101  0.142  0.156  0.392-  31 2.22  29 2.28  35 2.45
 102  0.904  0.840  0.389-  31 2.29  33 2.30  30 2.36
 103  0.899  0.158  0.393-  31 2.20  26 2.36  35 2.39
 104  0.643  0.158  0.393-  32 2.21  26 2.36  36 2.39
 105  0.391  0.532  0.402- 109 2.12  34 2.29  27 2.52
 106  0.902  0.507  0.389-  33 2.21  25 2.33  35 2.42
 107  0.641  0.507  0.389-  34 2.21  25 2.32  36 2.43
 108  0.152  0.533  0.402- 109 2.12  33 2.29  27 2.53
 109  0.272  0.670  0.421- 108 2.12 105 2.12  98 2.14  99 2.14  34 3.04  33 3.05  28 3.20  27 3.23

IMPORTANT INFORMATION: All symmetrisations will be switched off!
NOSYMM: (Re-)initialisation of all symmetry stuff for point group C_1.

 KPOINTS: CeO2-111-3x3-9layers         ! Comment

Automatic generation of k-mesh.
Space group operators:
 irot       det(A)        alpha          n_x          n_y          n_z        tau_x        tau_y        tau_z
    1     1.000000     0.000000     1.000000     0.000000     0.000000     0.000000     0.000000     0.000000

 Subroutine IBZKPT returns following result:

 Found      1 irreducible k-points:

 Following reciprocal coordinates:
            Coordinates               Weight
  0.000000  0.000000  0.000000      1.000000

 Following cartesian coordinates:
            Coordinates               Weight
  0.000000  0.000000  0.000000      1.000000

 I would recommend the setting:
   dimension x,y,z NGX =    72 NGY =   76 NGZ =  161
 SYSTEM =  unknown system
 POSCAR =  CeO2-110-l3-p23:

 Startparameter for this run:
   NWRITE =      2    write-flag & timer
   PREC   = accura    normal or accurate (medium, high low for compatibility)
   ISTART =      0    job   : 0-new  1-cont  2-samecut
   ICHARG =      2    charge: 1-file 2-atom 10-const
   ISPIN  =      2    spin polarized calculation?
   LNONCOLLINEAR =      F non collinear calculations
   LSORBIT =      F    spin-orbit coupling
   INIWAV =      1    electr: 0-lowe 1-rand  2-diag
   LASPH  =      T    aspherical Exc in radial PAW
   METAGGA=      F    non-selfconsistent MetaGGA calc.

 Electronic Relaxation 1
   ENCUT  =  400.0 eV  29.40 Ry    5.42 a.u.  17.91 18.99 40.29*2*pi/ulx,y,z
   ENINI  =  400.0     initial cutoff
   ENAUG  =  605.4 eV  augmentation charge cutoff
   NELM   =    100;   NELMIN=  2; NELMDL= -5     # of ELM steps
   EDIFF  = 0.1E-03   stopping-criterion for ELM
   LREAL  =      T    real-space projection
   NLSPLINE    = F    spline interpolate recip. space projectors
   LCOMPAT=      F    compatible to vasp.4.4
   GGA_COMPAT  = T    GGA compatible to vasp.4.4-vasp.4.6
   LMAXPAW     = -100 max onsite density
   LMAXMIX     =    6 max onsite mixed and CHGCAR
   VOSKOWN=      0    Vosko Wilk Nusair interpolation
[...]
   0.865E+01 -.683E+00 -.315E+04   -.791E+01 -.859E+00 0.315E+04   -.715E+00 0.152E+01 0.414E+01   -.185E-01 0.210E-01 0.207E-01
   0.685E+02 0.615E+00 0.161E+04   -.745E+02 -.617E+00 -.162E+04   0.717E+01 0.134E-01 0.509E+01   -.166E-03 -.536E-02 -.461E-02
   0.676E+02 -.144E+01 0.161E+04   -.736E+02 0.146E+01 -.162E+04   0.719E+01 -.423E-01 0.507E+01   0.324E-02 0.270E-02 -.148E-02
   0.682E+02 0.592E+00 0.161E+04   -.742E+02 -.603E+00 -.162E+04   0.718E+01 0.192E-01 0.507E+01   -.234E-02 0.178E-02 -.543E-02
   -.685E+02 -.121E+01 0.161E+04   0.745E+02 0.122E+01 -.162E+04   -.718E+01 -.314E-01 0.508E+01   -.429E-03 0.347E-02 -.107E-02
   -.685E+02 0.613E+00 0.161E+04   0.745E+02 -.615E+00 -.162E+04   -.717E+01 0.131E-01 0.508E+01   -.177E-03 -.505E-02 -.528E-02
   0.676E+02 0.893E+00 0.161E+04   -.737E+02 -.899E+00 -.162E+04   0.718E+01 0.248E-01 0.507E+01   -.160E-03 -.833E-02 -.490E-02
   -.679E+02 0.552E+00 0.161E+04   0.740E+02 -.566E+00 -.162E+04   -.719E+01 0.162E-01 0.508E+01   0.914E-03 0.591E-02 -.284E-02
   -.676E+02 -.144E+01 0.161E+04   0.736E+02 0.146E+01 -.162E+04   -.718E+01 -.418E-01 0.507E+01   -.278E-02 0.265E-02 -.903E-03
   0.685E+02 -.121E+01 0.161E+04   -.745E+02 0.122E+01 -.162E+04   0.717E+01 -.312E-01 0.508E+01   -.198E-04 0.357E-02 -.540E-03
   -.677E+02 0.893E+00 0.161E+04   0.737E+02 -.899E+00 -.162E+04   -.718E+01 0.245E-01 0.507E+01   0.496E-03 -.855E-02 -.436E-02
   -.682E+02 0.590E+00 0.161E+04   0.742E+02 -.602E+00 -.162E+04   -.718E+01 0.197E-01 0.507E+01   0.226E-02 0.159E-02 -.549E-02
   0.679E+02 0.549E+00 0.161E+04   -.740E+02 -.563E+00 -.162E+04   0.719E+01 0.165E-01 0.508E+01   -.848E-03 0.565E-02 -.310E-02
   -.484E+01 -.312E+01 0.989E+03   0.543E+01 0.309E+01 -.989E+03   -.935E+00 0.595E-01 -.736E+00   -.299E-02 0.666E-02 -.512E-03
   0.636E+01 -.957E+00 0.991E+03   -.698E+01 0.884E+00 -.990E+03   0.956E+00 0.823E-01 -.806E+00   -.189E-02 0.882E-02 -.625E-02
   -.148E+01 -.149E+01 0.982E+03   0.184E+01 0.146E+01 -.982E+03   -.752E+00 0.500E-01 -.977E+00   0.118E-03 -.810E-02 -.386E-02
   0.144E+01 -.145E+01 0.982E+03   -.180E+01 0.143E+01 -.982E+03   0.753E+00 0.460E-01 -.991E+00   0.158E-02 -.884E-02 -.541E-02
   -.560E+01 -.157E+01 0.986E+03   0.607E+01 0.152E+01 -.985E+03   -.818E+00 0.893E-01 -.101E+01   -.190E-02 -.742E-02 -.581E-02
   -.639E+01 -.904E+00 0.991E+03   0.701E+01 0.833E+00 -.990E+03   -.958E+00 0.794E-01 -.799E+00   0.125E-02 0.832E-02 -.625E-02
   0.559E+01 -.160E+01 0.986E+03   -.606E+01 0.154E+01 -.985E+03   0.813E+00 0.925E-01 -.102E+01   0.242E-03 -.628E-02 -.347E-02
   0.484E+01 -.317E+01 0.989E+03   -.543E+01 0.314E+01 -.989E+03   0.936E+00 0.650E-01 -.735E+00   0.357E-02 0.636E-02 -.149E-02
   -.425E+01 0.463E+01 0.987E+03   0.476E+01 -.453E+01 -.986E+03   -.870E+00 -.175E+00 -.839E+00   -.227E-02 0.137E-02 -.466E-02
   0.423E+01 0.463E+01 0.987E+03   -.475E+01 -.454E+01 -.986E+03   0.872E+00 -.176E+00 -.838E+00   0.304E-02 0.240E-02 -.589E-02
   -.536E+01 0.243E+01 0.988E+03   0.588E+01 -.237E+01 -.987E+03   -.870E+00 -.827E-01 -.915E+00   0.880E-03 -.106E-02 -.129E-01
   0.536E+01 0.253E+01 0.988E+03   -.588E+01 -.245E+01 -.987E+03   0.866E+00 -.895E-01 -.916E+00   -.162E-02 -.269E-02 -.115E-01
[...]
   -.253E+02 -.228E+02 -.950E+03   0.272E+02 0.232E+02 0.947E+03   -.199E+01 -.470E+00 0.254E+01   0.383E-01 0.115E-01 0.241E-02
   -.938E+02 -.171E+02 -.160E+04   0.985E+02 0.173E+02 0.161E+04   -.474E+01 -.156E+00 -.648E+01   0.218E-01 -.204E-01 0.251E-01
   0.416E+02 -.187E+03 -.162E+04   -.457E+02 0.201E+03 0.163E+04   0.408E+01 -.140E+02 -.444E+01   -.367E-01 0.264E-01 0.140E-01
   -.409E+02 -.186E+03 -.162E+04   0.449E+02 0.200E+03 0.163E+04   -.400E+01 -.139E+02 -.440E+01   0.612E-02 0.183E-01 0.210E-01
   0.753E+02 -.342E+02 -.162E+04   -.797E+02 0.363E+02 0.163E+04   0.449E+01 -.203E+01 -.779E+01   -.375E-01 0.303E-02 -.111E-01
   -.751E+02 -.320E+02 -.162E+04   0.796E+02 0.338E+02 0.162E+04   -.449E+01 -.182E+01 -.767E+01   0.286E-01 -.129E-01 -.174E-01
   0.936E+02 -.158E+02 -.160E+04   -.984E+02 0.158E+02 0.161E+04   0.475E+01 -.364E-02 -.646E+01   0.621E-02 -.215E-01 0.224E-01
   0.848E+02 -.311E+02 -.163E+04   -.911E+02 0.329E+02 0.163E+04   0.627E+01 -.182E+01 -.707E+01   0.454E-02 0.949E-02 0.141E-01
   -.846E+02 -.317E+02 -.163E+04   0.908E+02 0.336E+02 0.163E+04   -.622E+01 -.192E+01 -.705E+01   0.559E-02 0.112E-01 0.193E-01
   -.427E+02 0.199E+03 -.163E+04   0.468E+02 -.213E+03 0.163E+04   -.407E+01 0.146E+02 -.467E+01   0.262E-01 -.339E-01 0.267E-01
   0.838E+02 0.517E+02 -.160E+04   -.879E+02 -.540E+02 0.161E+04   0.414E+01 0.232E+01 -.665E+01   -.425E-02 0.304E-02 0.256E-01
   -.851E+02 0.511E+02 -.160E+04   0.893E+02 -.533E+02 0.161E+04   -.420E+01 0.225E+01 -.666E+01   0.176E-01 0.422E-02 0.275E-01
   0.436E+02 0.200E+03 -.163E+04   -.477E+02 -.214E+03 0.163E+04   0.416E+01 0.147E+02 -.476E+01   -.394E-01 -.289E-01 0.236E-01
   -.340E+00 0.615E-01 -.280E+04   0.350E+00 -.330E+00 0.280E+04   0.104E-01 0.268E+00 0.350E-01   -.241E-01 -.277E-01 0.844E-01
   -.958E+00 0.272E+01 0.881E+01   -.213E-12 0.114E-12 0.246E-10   0.974E+00 -.270E+01 -.956E+01   -.125E-01 -.357E-01 0.643E+00

 POSITION                                       TOTAL-FORCE (eV/Angst)
      8.46781      1.94101      0.00000        -0.000327      0.007083      2.541632
      8.46781      5.82303      0.00000         0.001013     -0.011714      2.518141
      2.97781      1.94101      0.00000        -0.001520      0.005966      2.570387
      8.46781      9.70504      0.00000        -0.000495      0.005168      2.477329
      2.97781      5.82303      0.00000        -0.000243     -0.014949      2.507634
      2.97781      9.70504      0.00000        -0.000537      0.009661      2.473218
      5.72281      0.00000      1.94101         0.009424      0.119349     -0.957453
      5.72281      7.76403      1.94101         0.013912     -0.051298     -0.999162
      0.23281      0.00000      1.94101        -0.005898      0.120911     -0.955645
      5.72281      3.88202      1.94101         0.012778     -0.065488     -0.858819
      0.23281      3.88202      1.94101        -0.009642     -0.065369     -0.860300
      0.23281      7.76403      1.94101        -0.012767     -0.052603     -0.994158
      8.46843      1.95313      3.89315         0.003257     -0.001635     -0.004120
      8.46840      9.71963      3.87557         0.001430      0.000855      0.013774
      2.97830      1.94837      3.91343        -0.005521      0.004091     -0.006169
      8.46803      5.80629      3.88795         0.004523     -0.000326      0.014822
      2.97786      5.80937      3.89069        -0.005490     -0.001299      0.005234
      2.97791      9.70389      3.88098        -0.003973     -0.002518     -0.003528
      0.21538      7.76034      5.75345         0.007981     -0.005954      0.012497
      5.74183      7.76040      5.75257        -0.005000      0.000561      0.013344
      0.23612      3.87764      5.82774        -0.005100      0.005323      0.004977
      0.24008      0.00933      5.77860        -0.005829      0.000196     -0.001274
      5.71719      0.00881      5.77829         0.007489     -0.006930     -0.004548
      5.72045      3.87772      5.82797         0.007482      0.004263      0.002252
      8.46958      5.80822      7.79727         0.009885     -0.008550      0.015775
      8.46543      1.95148      7.82022         0.011744      0.010012      0.012766
      2.98049      5.85288      7.76831        -0.011294      0.016746     -0.033825
      2.97949      9.64067      7.74175        -0.000703     -0.018592     -0.021471
      2.98185      1.93105      7.90213        -0.011467     -0.007782      0.002066
      8.46878      9.75411      7.75099        -0.005274      0.003679     -0.008910
      0.18936      0.05685      9.53385         0.020932      0.008165      0.008106
      5.76328      0.05787      9.53610        -0.008961     -0.007117      0.006143
      0.08662      7.78251      9.51256         0.009185     -0.030879      0.015156
      5.87479      7.78538      9.51186        -0.016388      0.003677      0.014272
      0.19308      3.84314      9.64870        -0.003531      0.020701     -0.009448
      5.76787      3.85251      9.65177        -0.001525      0.010640     -0.009920
      7.09531      3.88202      0.00000         1.136019      0.006259     -0.454544
      1.60531      0.00000      0.00000         1.141332     -0.019931     -0.460592
      7.09531      7.76403      0.00000         1.139287      0.009906     -0.458432
      9.84031      0.00000      0.00000        -1.138520     -0.014769     -0.454861
      9.84031      3.88202      0.00000        -1.138264      0.006071     -0.455204
      1.60531      3.88202      0.00000         1.140707      0.011178     -0.460692
      4.35031      7.76403      0.00000        -1.144370      0.008533     -0.457135
      4.35031      0.00000      0.00000        -1.141628     -0.019696     -0.460073
      7.09531      0.00000      0.00000         1.137800     -0.014662     -0.455110
      4.35031      3.88202      0.00000        -1.140927      0.011033     -0.459458
      9.84031      7.76403      0.00000        -1.140783      0.010207     -0.458561
      1.60531      7.76403      0.00000         1.143177      0.008636     -0.457166
      4.35031      9.70504      1.94101        -0.347627      0.036418     -0.291095
      7.09531      9.70504      1.94101         0.337508      0.018629     -0.353267
      4.35031      1.94101      1.94101        -0.391105      0.016827     -0.275245
      1.60531      1.94101      1.94101         0.393067      0.014726     -0.278119
      9.84031      1.94101      1.94101        -0.344235      0.030404     -0.364915
      9.84031      9.70504      1.94101        -0.336259      0.016685     -0.355142
      7.09531      1.94101      1.94101         0.344588      0.032131     -0.365641
      1.60531      9.70504      1.94101         0.348429      0.039503     -0.289619
      4.35031      5.82303      1.94101        -0.357239     -0.075622     -0.292595
      1.60531      5.82303      1.94101         0.358039     -0.076286     -0.291890
      9.84031      5.82303      1.94101        -0.347953     -0.016348     -0.349274
      7.09531      5.82303      1.94101         0.347069     -0.020365     -0.347670
[...]
      1.62862      3.97204      7.84157        -0.012186     -0.017622      0.001367
      1.59907     11.52124      7.80256         0.005564     -0.002786     -0.026090
      7.00756      9.79128      9.60337         0.010253      0.003836      0.010684
      1.66639      9.38766      9.91591         0.022352      0.007965     -0.015025
      4.29397      9.39359      9.90988        -0.026917     -0.005298     -0.007453
      4.39230      1.80584      9.68599         0.001915     -0.005588     -0.012228
      1.55914      1.81293      9.67695         0.003047     -0.018492     -0.008481
      9.93511      9.79223      9.60257        -0.017841      0.007081      0.010126
      9.87758      1.83711      9.70375         0.001388     -0.002997      0.014032
      7.05505      1.83378      9.70309         0.004592     -0.004121      0.022067
      4.28786      6.21240      9.96801        -0.018389      0.026500     -0.025150
      9.90273      5.89388      9.61667        -0.004058      0.016336      0.023655
      7.03760      5.89736      9.61754         0.015736      0.005977      0.016433
      1.67648      6.21416      9.97225         0.015092      0.018611     -0.037797
      2.98261      7.80228     10.16058        -0.003132     -0.026436     -0.031280
    total drift:                                0.003658     -0.021470     -0.107336

  FREE ENERGIE OF THE ION-ELECTRON SYSTEM (eV)
  free  energy   TOTEN  =      -890.30884084 eV

  energy  without entropy=     -890.30884084  energy(sigma->0) =     -890.30884084

 d Force = 0.1784916E-02[ 0.974E-03, 0.260E-02]  d Energy = 0.2514891E-02-0.730E-03
 d Force = 0.3044127E+01[ 0.304E+01, 0.305E+01]  d Ewald  = 0.3044128E+01-0.117E-05

 stress matrix after NEB project (eV)
    -65.22120     -0.02451     -0.08912
     -0.02466   -121.23907      0.08512
     -0.08834      0.08482    -67.42474
  FORCES: max atom, RMS     0.044753    0.016476
  FORCE total and by dimension    0.172016    0.037797
  Stress total and by dimension  153.293321  121.239066
 Conjugate gradient step on ions:
 trial-energy change:   -0.002515  1 .order   -0.001785   -0.002596   -0.000974
  (g-gl).g = 0.132E-02      g.g   = 0.959E-03  gl.gl    = 0.365E-02
 g(Force)  = 0.959E-03   g(Stress)= 0.000E+00 ortho     =-0.159E-03
 gamma     =   0.36314
 trial     =   2.88246
 opt step  =   3.30488  (harmonic =   4.61234) maximal distance =0.00216907
 next E    =  -890.308914   (d E  =  -0.00259)

 reached required accuracy - stopping structural energy minimisation
 writing wavefunctions

 total charge

[...]

 magnetization (x)

# of ion     s       p       d       f       tot
  1        0.000  -0.000  -0.000  -0.000  -0.000
  2        0.000   0.000   0.000  -0.000   0.000
  3        0.000  -0.000  -0.000  -0.000  -0.000
  4        0.000   0.000   0.000  -0.000   0.000
  5       -0.000   0.000   0.000   0.000   0.000
  6        0.000  -0.000  -0.000   0.000  -0.000
  7       -0.000  -0.000   0.000  -0.000  -0.000
  8       -0.000   0.000  -0.000  -0.000  -0.000
  9        0.000  -0.000   0.000  -0.000  -0.000
 10        0.000  -0.000   0.000   0.000   0.000
 11        0.000  -0.000   0.000   0.000   0.000
 12       -0.000  -0.000  -0.000   0.000  -0.000
 13        0.000  -0.000   0.000   0.000   0.000
 14       -0.000  -0.000  -0.000   0.000  -0.000
 15        0.000  -0.000   0.000   0.000   0.000
 16        0.000  -0.000  -0.000   0.000   0.000
 17        0.000  -0.000   0.000   0.000   0.000
 18       -0.000  -0.000   0.000  -0.000  -0.000
 19       -0.000  -0.000   0.000   0.000   0.000
 20       -0.000  -0.000  -0.000  -0.000  -0.000
 21       -0.000  -0.000   0.000   0.002   0.003
 22       -0.000  -0.000  -0.000   0.000   0.000
 23       -0.000  -0.000  -0.000   0.000   0.000
 24       -0.000  -0.000  -0.000   0.000   0.000
 25       -0.000  -0.000   0.000   0.002   0.002
 26       -0.000  -0.000  -0.000   0.000   0.000
 27       -0.000  -0.000   0.000   0.004   0.004
 28        0.000  -0.000   0.000   0.000   0.000
 29       -0.000  -0.000   0.000   0.007   0.007
 30       -0.000  -0.000   0.000   0.000   0.000
 31       -0.000  -0.000  -0.000   0.001   0.001
 32       -0.000  -0.000   0.000   0.007   0.007
 33       -0.000  -0.000  -0.000   0.001   0.000
 34        0.000  -0.000  -0.000   0.001   0.001
 35       -0.004  -0.006   0.014   0.975   0.979
 36       -0.004  -0.006   0.013   0.976   0.980
 37       -0.000  -0.000   0.000   0.000  -0.000
 38        0.000   0.000   0.000   0.000   0.000
 39       -0.000   0.000   0.000   0.000   0.000
 40        0.000  -0.000   0.000   0.000  -0.000
 41       -0.000  -0.000   0.000   0.000  -0.000
 42       -0.000  -0.000   0.000   0.000  -0.000
 43       -0.000  -0.000   0.000   0.000  -0.000
 44        0.000   0.000   0.000   0.000   0.000
 45        0.000   0.000   0.000   0.000   0.000
 46       -0.000  -0.000   0.000   0.000  -0.000
 47       -0.000   0.000   0.000   0.000   0.000
 48       -0.000  -0.000   0.000   0.000  -0.000
 49        0.000   0.000   0.000   0.000   0.000
 50        0.000  -0.000   0.000   0.000  -0.000
 51       -0.000  -0.000   0.000   0.000  -0.000
 52       -0.000  -0.000   0.000   0.000  -0.000
 53       -0.000  -0.000   0.000   0.000  -0.000
 54       -0.000  -0.000   0.000   0.000  -0.000
 55       -0.000  -0.000   0.000   0.000  -0.000
 56        0.000   0.000   0.000   0.000   0.000
 57       -0.000  -0.000   0.000   0.000  -0.000
 58       -0.000  -0.000   0.000   0.000  -0.000
 59       -0.000  -0.000   0.000   0.000  -0.000
 60       -0.000  -0.000   0.000   0.000  -0.000
[...]
 95       -0.000  -0.007   0.000   0.000  -0.008
 96       -0.000  -0.000   0.000   0.000  -0.000
 97       -0.000  -0.001   0.000   0.000  -0.001
 98        0.000  -0.000   0.000   0.000  -0.000
 99       -0.000  -0.000   0.000   0.000  -0.000
100       -0.000  -0.005   0.000   0.000  -0.005
101       -0.000  -0.004   0.000   0.000  -0.005
102       -0.000  -0.000   0.000   0.000  -0.000
103       -0.000  -0.004   0.000   0.000  -0.004
104       -0.000  -0.005   0.000   0.000  -0.005
105       -0.000  -0.001   0.000   0.000  -0.001
106       -0.000  -0.004   0.000   0.000  -0.004
107       -0.000  -0.004   0.000   0.000  -0.004
108       -0.000  -0.001   0.000   0.000  -0.001
109       -0.000  -0.000   0.000   0.000  -0.000
tot       -0.010  -0.062   0.028   1.978   1.934