 vasp.5.3.5 31Mar14 (build May 27 2014 14:39:49) gamma-only

 executed on           LinuxIFORT date 2020.11.24  14:55:35

 INCAR:
 POTCAR:    PAW_PBE Ce 23Dec2003
 POTCAR:    PAW_PBE O 08Apr2002
 POTCAR:    PAW_PBE Pt 04Feb2005
 POTCAR:    PAW_PBE O 08Apr2002
 POTCAR:    PAW_PBE C 08Apr2002
 POTCAR:    PAW_PBE Ce 23Dec2003
   VRHFIN =Ce : [core= Kr 4d10]

   TITEL  = PAW_PBE Ce 23Dec2003
   POMASS =  140.115; ZVAL   =   12.000    mass and valenz
   ENMAX  =  273.042; ENMIN  =  204.781 eV

 POTCAR:    PAW_PBE O 08Apr2002
   VRHFIN =O: s2p4

   TITEL  = PAW_PBE O 08Apr2002
   POMASS =   16.000; ZVAL   =    6.000    mass and valenz
   ENMAX  =  400.000; ENMIN  =  300.000 eV

 POTCAR:    PAW_PBE Pt 04Feb2005
   VRHFIN =Pt: s1d9

   TITEL  = PAW_PBE Pt 04Feb2005
   POMASS =  195.080; ZVAL   =   10.000    mass and valenz
   ENMAX  =  230.283; ENMIN  =  172.712 eV

 POTCAR:    PAW_PBE O 08Apr2002
   VRHFIN =O: s2p4

[...]

 POTCAR:    PAW_PBE C 08Apr2002
   VRHFIN =C: s2p2

   TITEL  = PAW_PBE C 08Apr2002
   POMASS =   12.011; ZVAL   =    4.000    mass and valenz
   ENMAX  =  400.000; ENMIN  =  300.000 eV

 Optimization of the real space projectors (new method)

 maximal supplied QI-value         = 13.98
 optimisation between [QCUT,QGAM] = [ 10.21, 20.42] = [ 29.18,116.73] Ry
 Optimized for a Real-space Cutoff    1.65 Angstroem

   l    n(q)    QCUT    max X(q) W(low)/X(q) W(high)/X(q)  e(spline)
   0     10    10.208     8.553    0.18E-04    0.75E-05    0.12E-06
   0     10    10.208     8.106    0.26E-04    0.16E-04    0.24E-06
   1     10    10.208     4.160    0.93E-05    0.96E-06    0.75E-07
   1     10    10.208     3.597    0.23E-04    0.26E-04    0.15E-06
   2      9    10.208     8.183    0.11E-03    0.28E-03    0.51E-06
   2      9    10.208     6.077    0.74E-04    0.19E-03    0.37E-06
   3      9    10.208   116.013    0.19E-03    0.98E-05    0.18E-06
   3      9    10.208   108.937    0.19E-03    0.10E-04    0.18E-06
 Optimization of the real space projectors (new method)

[...]

   l    n(q)    QCUT    max X(q) W(low)/X(q) W(high)/X(q)  e(spline)
   0      9    10.150    20.381    0.17E-03    0.18E-03    0.41E-06
   0      9    10.150    15.268    0.18E-03    0.20E-03    0.43E-06
   1      9    10.150     5.964    0.16E-03    0.20E-03    0.36E-06
   1      9    10.150     5.382    0.13E-03    0.16E-03    0.33E-06
 Optimization of the real space projectors (new method)

 maximal supplied QI-value         = 25.13
 optimisation between [QCUT,QGAM] = [ 10.05, 20.36] = [ 28.30,116.06] Ry
 Optimized for a Real-space Cutoff    1.51 Angstroem

   l    n(q)    QCUT    max X(q) W(low)/X(q) W(high)/X(q)  e(spline)
   0      9    10.053   115.676    0.19E-03    0.21E-03    0.38E-06
   0      9    10.053    87.132    0.19E-03    0.21E-03    0.38E-06
   1      9    10.053     4.429    0.87E-04    0.11E-03    0.39E-06
   1      9    10.053     2.733    0.59E-04    0.62E-04    0.43E-06
  PAW_PBE Ce 23Dec2003                  :
  PAW_PBE O 08Apr2002                   :
  PAW_PBE Pt 04Feb2005                  :
  PAW_PBE O 08Apr2002                   :
  PAW_PBE C 08Apr2002                   :

 POSCAR: CeO2-110-l3-p23:
  positions in direct lattice
  velocities in cartesian coordinates
 exchange correlation table for  LEXCH =        8
   RHO(1)=    0.500       N(1)  =     2000
   RHO(2)=  100.500       N(2)  =     4000

 VTST: version 3.1, (03/28/14)

 CHAIN: initializing optimizer

 OPT: Using VASP Conjugate-Gradient optimizer
 CHAIN: Read ICHAIN            0

 POSCAR: CeO2-110-l3-p23:
  positions in direct lattice
  velocities in cartesian coordinates

 ion  position               nearest neighbor table
   1  0.771  0.167  0.000-  37 2.38  41 2.38  40 2.38  45 2.38  53 2.38  55 2.38
   2  0.771  0.500  0.000-  37 2.38  39 2.38  41 2.38  47 2.38  59 2.38  60 2.38
   3  0.271  0.167  0.000-  42 2.38  46 2.38  44 2.38  38 2.38  51 2.38  52 2.38
   4  0.771  0.833  0.000-  39 2.38  47 2.38  45 2.38  40 2.38  50 2.38  54 2.38
   5  0.271  0.500  0.000-  42 2.38  43 2.38  46 2.38  48 2.38  57 2.38  58 2.38
   6  0.271  0.833  0.000-  43 2.38  48 2.38  44 2.38  38 2.38  49 2.38  56 2.38
   7  0.521  0.000  0.079-  67 2.37  61 2.38  51 2.38  55 2.38  49 2.38  50 2.38  44 2.38  45 2.38

   8  0.521  0.667  0.079-  62 2.38  50 2.38  49 2.38  60 2.38  57 2.38  43 2.38  39 2.38  63 2.38

[...]

  31  0.017  0.005  0.385- 103 2.21 101 2.22  86 2.26  96 2.28 102 2.35  98 2.45
  32  0.522  0.006  0.386-  89 2.24  91 2.24 104 2.27 100 2.29  97 2.33  99 2.49
  33  0.016  0.662  0.385- 106 2.21 108 2.23  92 2.27  87 2.28 102 2.34  98 2.52
  34  0.521  0.661  0.386-  90 2.24  93 2.24 107 2.29 105 2.29  97 2.36  99 2.45
  35  0.019  0.334  0.389-  94 2.33  95 2.34 108 2.44 101 2.46 103 2.47 106 2.47
  36  0.519  0.333  0.385-  85 2.23  88 2.24 107 2.32 105 2.33 104 2.33 100 2.34
  37  0.646  0.333  0.000-   1 2.38   2 2.38  10 2.38
  38  0.146  0.000  0.000-   3 2.38   6 2.38   9 2.38
  39  0.646  0.667  0.000-   4 2.38   2 2.38   8 2.38
  40  0.896  0.000  0.000-   1 2.38   4 2.38   9 2.38
  41  0.896  0.333  0.000-   1 2.38   2 2.38  11 2.38
  42  0.146  0.333  0.000-   3 2.38   5 2.38  11 2.38
  43  0.396  0.667  0.000-   6 2.38   5 2.38   8 2.38
  44  0.396  0.000  0.000-   3 2.38   6 2.38   7 2.38
  45  0.646  0.000  0.000-   1 2.38   4 2.38   7 2.38
  46  0.396  0.333  0.000-   3 2.38   5 2.38  10 2.38
  47  0.896  0.667  0.000-   4 2.38   2 2.38  12 2.38
  48  0.146  0.667  0.000-   6 2.38   5 2.38  12 2.38
  49  0.396  0.833  0.079-  18 2.37   8 2.38   7 2.38   6 2.38
  50  0.646  0.833  0.079-   8 2.38   7 2.38   4 2.38  14 2.38
  51  0.396  0.167  0.079-  10 2.38   7 2.38   3 2.38  15 2.40
  52  0.146  0.167  0.079-  11 2.38   9 2.38   3 2.38  15 2.39
  53  0.896  0.167  0.079-  11 2.38   9 2.38   1 2.38  13 2.39
  54  0.896  0.833  0.079-  12 2.38   9 2.38   4 2.38  14 2.39
  55  0.646  0.167  0.079-  10 2.38   7 2.38   1 2.38  13 2.39
  56  0.146  0.833  0.079-  18 2.37  12 2.38   9 2.38   6 2.38
  57  0.396  0.500  0.079-   8 2.38  10 2.38   5 2.38  17 2.40
  58  0.146  0.500  0.079-  11 2.38  12 2.38   5 2.38  17 2.39
  59  0.896  0.500  0.079-  11 2.38  12 2.38   2 2.38  16 2.39
  60  0.646  0.500  0.079-   8 2.38  10 2.38   2 2.38  16 2.39
  61  0.646  1.000  0.157-  23 2.34  14 2.37   7 2.38  13 2.39
  62  0.396  0.667  0.157-  20 2.35  18 2.38   8 2.38  17 2.38
  63  0.646  0.667  0.157-  20 2.34  14 2.37   8 2.38  16 2.39
  64  0.895  0.667  0.157-  19 2.34  12 2.37  14 2.37  16 2.38
  65  0.146  0.000  0.156-  22 2.35   9 2.36  15 2.37  18 2.38
  66  0.895  0.000  0.157-  22 2.33   9 2.37  14 2.38  13 2.38
  67  0.396  1.000  0.157-  23 2.35   7 2.37  18 2.38  15 2.38
  68  0.146  0.666  0.157-  19 2.35  12 2.36  17 2.37  18 2.38
  69  0.395  0.333  0.157-  24 2.34  15 2.37  17 2.38  10 2.39
  70  0.896  0.333  0.157-  13 2.37  16 2.37  21 2.37  11 2.38
  71  0.646  0.333  0.157-  24 2.36  10 2.37  13 2.37  16 2.37
  72  0.146  0.333  0.158-  21 2.37  17 2.37  15 2.37  11 2.38
  73  0.645  0.167  0.235-  13 2.36  23 2.37  24 2.37  26 2.45
  74  0.645  0.833  0.236-  23 2.38  20 2.38  14 2.38  30 2.42
  75  0.395  0.833  0.235-  28 2.35  18 2.37  23 2.39  20 2.39
  76  0.896  0.499  0.235-  16 2.35  21 2.37  19 2.38  25 2.44
  77  0.147  0.833  0.234-  18 2.34  28 2.36  19 2.39  22 2.39
  78  0.645  0.500  0.235-  16 2.36  20 2.36  24 2.37  25 2.45
  79  0.396  0.165  0.236-  23 2.36  15 2.37  24 2.39  29 2.44
  80  0.896  0.168  0.235-  13 2.36  21 2.37  22 2.38  26 2.44
  81  0.396  0.501  0.236-  20 2.36  17 2.37  24 2.38  27 2.45
  82  0.145  0.501  0.236-  19 2.37  17 2.37  21 2.39  27 2.41
  83  0.145  0.166  0.236-  15 2.37  22 2.37  21 2.39  29 2.42
  84  0.896  0.833  0.235-  14 2.35  19 2.37  22 2.37  30 2.46
  85  0.643  0.333  0.313-  36 2.23  24 2.38  26 2.39  25 2.39
  86  0.894  1.000  0.311-  31 2.26  22 2.37  26 2.38  30 2.38
  87  0.144  0.673  0.313-  33 2.28  28 2.32  19 2.39  27 2.43
  88  0.395  0.333  0.313-  36 2.24  24 2.39  29 2.39  27 2.40
  89  0.645  0.003  0.314-  32 2.24  26 2.37  23 2.39  30 2.40
  90  0.644  0.665  0.314-  34 2.24  25 2.38  20 2.39  30 2.40
[...]
  97  0.631  0.834  0.389-  32 2.33  30 2.35  34 2.36
  98  0.149  0.837  0.396- 109 1.98  31 2.45  28 2.46  33 2.52
  99  0.393  0.832  0.398- 109 2.12  34 2.45  32 2.49  28 2.51
 100  0.402  0.166  0.391-  32 2.29  29 2.33  36 2.34
 101  0.141  0.156  0.390-  31 2.22  29 2.29  35 2.46
 102  0.905  0.833  0.389-  30 2.32  33 2.34  31 2.35
 103  0.896  0.156  0.392-  31 2.21  26 2.30  35 2.47
 104  0.638  0.168  0.392-  32 2.27  36 2.33  26 2.36
 105  0.401  0.499  0.390-  34 2.29  27 2.33  36 2.33
 106  0.896  0.511  0.392-  33 2.21  25 2.30  35 2.47
 107  0.637  0.499  0.392-  34 2.29  36 2.32  25 2.36
 108  0.140  0.510  0.390-  33 2.23  27 2.28  35 2.44
 109  0.258  0.788  0.455- 111 1.81  98 1.98  99 2.12
 110  0.364  0.695  0.558- 111 1.17
 111  0.327  0.733  0.517- 110 1.17 109 1.81

IMPORTANT INFORMATION: All symmetrisations will be switched off!
NOSYMM: (Re-)initialisation of all symmetry stuff for point group C_1.

 KPOINTS: CeO2-111-3x3-9layers         ! Comment

Automatic generation of k-mesh.
Space group operators:
 irot       det(A)        alpha          n_x          n_y          n_z        tau_x        tau_y        tau_z
    1     1.000000     0.000000     1.000000     0.000000     0.000000     0.000000     0.000000     0.000000

 Subroutine IBZKPT returns following result:

 Found      1 irreducible k-points:

 Following reciprocal coordinates:
            Coordinates               Weight
  0.000000  0.000000  0.000000      1.000000

 Following cartesian coordinates:
            Coordinates               Weight
  0.000000  0.000000  0.000000      1.000000

 I would recommend the setting:
   dimension x,y,z NGX =    72 NGY =   76 NGZ =  161
 SYSTEM =  unknown system
 POSCAR =  CeO2-110-l3-p23:

 Startparameter for this run:
   NWRITE =      2    write-flag & timer
   PREC   = accura    normal or accurate (medium, high low for compatibility)
   ISTART =      1    job   : 0-new  1-cont  2-samecut
   ICHARG =      0    charge: 1-file 2-atom 10-const
   ISPIN  =      2    spin polarized calculation?
   LNONCOLLINEAR =      F non collinear calculations
   LSORBIT =      F    spin-orbit coupling
   INIWAV =      1    electr: 0-lowe 1-rand  2-diag
   LASPH  =      T    aspherical Exc in radial PAW
   METAGGA=      F    non-selfconsistent MetaGGA calc.

 Electronic Relaxation 1
   ENCUT  =  400.0 eV  29.40 Ry    5.42 a.u.  17.91 18.99 40.29*2*pi/ulx,y,z
   ENINI  =  400.0     initial cutoff
   ENAUG  =  644.9 eV  augmentation charge cutoff
   NELM   =    100;   NELMIN=  2; NELMDL=  0     # of ELM steps
   EDIFF  = 0.1E-03   stopping-criterion for ELM
   LREAL  =      T    real-space projection
   NLSPLINE    = F    spline interpolate recip. space projectors
   LCOMPAT=      F    compatible to vasp.4.4
   GGA_COMPAT  = T    GGA compatible to vasp.4.4-vasp.4.6
   LMAXPAW     = -100 max onsite density
   LMAXMIX     =    6 max onsite mixed and CHGCAR
   VOSKOWN=      0    Vosko Wilk Nusair interpolation
   ROPT   =   -0.00025  -0.00025  -0.00025  -0.00025
   ROPT   =   -0.00025
 Ionic relaxation
[...]
   0.997E+02 0.510E+01 -.300E+04   -.101E+03 -.863E+01 0.299E+04   0.926E+00 0.354E+01 0.496E+01   -.365E-02 -.623E-02 0.250E-02
   -.112E+03 0.183E+02 -.299E+04   0.112E+03 -.199E+02 0.298E+04   -.442E+00 0.163E+01 0.599E+01   -.122E-02 0.871E-03 0.117E-02
   0.193E+02 0.208E+02 -.311E+04   -.187E+02 -.206E+02 0.311E+04   -.594E+00 -.201E+00 0.366E+01   -.193E-03 0.329E-02 0.291E-02
   -.159E+02 0.257E+02 -.307E+04   0.161E+02 -.255E+02 0.307E+04   -.174E+00 -.193E+00 0.616E+01   0.112E-02 0.301E-02 -.184E-02
   0.680E+02 0.197E+00 0.161E+04   -.741E+02 -.196E+00 -.161E+04   0.717E+01 -.336E-02 0.509E+01   -.105E-03 0.712E-04 -.339E-04
   0.682E+02 -.123E+01 0.161E+04   -.743E+02 0.125E+01 -.161E+04   0.720E+01 -.287E-01 0.507E+01   -.318E-03 0.535E-04 0.112E-03
   0.678E+02 0.569E+00 0.161E+04   -.739E+02 -.576E+00 -.161E+04   0.716E+01 0.150E-01 0.509E+01   -.149E-03 -.164E-03 0.311E-04
   -.676E+02 -.831E+00 0.161E+04   0.736E+02 0.835E+00 -.161E+04   -.719E+01 -.844E-02 0.505E+01   0.266E-03 0.120E-03 0.177E-03
   -.680E+02 0.185E+00 0.161E+04   0.741E+02 -.184E+00 -.161E+04   -.718E+01 -.322E-02 0.507E+01   0.179E-03 0.102E-03 0.978E-05
   0.680E+02 0.216E+00 0.161E+04   -.740E+02 -.215E+00 -.161E+04   0.718E+01 -.241E-02 0.507E+01   -.229E-03 0.168E-03 -.621E-04
   -.685E+02 0.944E+00 0.161E+04   0.746E+02 -.962E+00 -.161E+04   -.718E+01 0.356E-01 0.510E+01   0.135E-03 -.154E-03 0.886E-05
   -.685E+02 -.117E+01 0.161E+04   0.746E+02 0.119E+01 -.161E+04   -.718E+01 -.339E-01 0.509E+01   0.347E-03 0.169E-04 0.142E-03
   0.679E+02 -.767E+00 0.161E+04   -.739E+02 0.773E+00 -.161E+04   0.716E+01 -.117E-01 0.509E+01   -.276E-03 0.873E-04 0.160E-03
   -.680E+02 0.226E+00 0.161E+04   0.741E+02 -.225E+00 -.161E+04   -.718E+01 -.204E-02 0.507E+01   0.141E-03 0.123E-03 -.541E-04
   -.676E+02 0.646E+00 0.161E+04   0.736E+02 -.652E+00 -.161E+04   -.719E+01 0.117E-01 0.505E+01   0.266E-03 -.222E-03 0.128E-03
   0.683E+02 0.102E+01 0.161E+04   -.743E+02 -.103E+01 -.161E+04   0.720E+01 0.310E-01 0.507E+01   -.261E-03 -.224E-03 0.660E-04
   -.768E+01 -.232E+00 0.992E+03   0.837E+01 0.239E+00 -.991E+03   -.103E+01 -.959E-02 -.752E+00   0.381E-03 0.300E-04 -.496E-03
   0.410E+01 -.212E+00 0.989E+03   -.458E+01 0.215E+00 -.989E+03   0.820E+00 -.517E-02 -.842E+00   0.125E-03 0.157E-03 -.337E-04
   -.379E+01 -.206E+01 0.987E+03   0.420E+01 0.205E+01 -.986E+03   -.772E+00 0.165E-01 -.976E+00   0.430E-03 0.129E-04 -.273E-03
   0.365E+01 -.319E+01 0.988E+03   -.411E+01 0.317E+01 -.987E+03   0.822E+00 0.571E-01 -.873E+00   -.501E-03 -.153E-03 -.150E-03
   -.396E+01 -.142E+01 0.988E+03   0.443E+01 0.139E+01 -.987E+03   -.818E+00 0.516E-01 -.956E+00   0.215E-03 -.208E-03 -.255E-04
   -.288E+01 -.208E+00 0.990E+03   0.336E+01 0.210E+00 -.989E+03   -.838E+00 -.270E-02 -.894E+00   0.696E-04 0.234E-03 -.102E-03
   0.435E+01 -.318E+00 0.988E+03   -.481E+01 0.296E+00 -.987E+03   0.810E+00 0.122E-01 -.898E+00   -.147E-03 -.112E-03 0.813E-04
   0.663E+01 -.161E+00 0.993E+03   -.735E+01 0.168E+00 -.993E+03   0.108E+01 -.116E-01 -.712E+00   -.400E-03 0.173E-03 -.500E-03
   -.379E+01 0.234E+01 0.987E+03   0.420E+01 -.233E+01 -.986E+03   -.774E+00 -.246E-01 -.962E+00   0.286E-03 -.810E-04 0.275E-04
   0.367E+01 0.332E+01 0.988E+03   -.413E+01 -.330E+01 -.988E+03   0.821E+00 -.560E-01 -.892E+00   -.446E-03 0.194E-03 -.314E-03
   -.383E+01 0.162E+01 0.988E+03   0.429E+01 -.158E+01 -.988E+03   -.807E+00 -.474E-01 -.963E+00   0.497E-03 0.492E-04 -.390E-03
   0.418E+01 0.555E+00 0.988E+03   -.463E+01 -.536E+00 -.987E+03   0.794E+00 -.842E-02 -.916E+00   -.308E-03 0.872E-04 -.177E-03
[...]
   0.725E+02 -.629E+02 -.145E+04   -.803E+02 0.676E+02 0.144E+04   0.776E+01 -.463E+01 0.735E+01   0.258E-03 0.683E-03 0.268E-02
   -.572E+02 -.634E+02 -.146E+04   0.631E+02 0.669E+02 0.146E+04   -.596E+01 -.348E+01 0.302E+01   0.715E-02 -.263E-02 0.893E-02
   0.765E+02 -.290E+02 -.159E+04   -.818E+02 0.295E+02 0.160E+04   0.525E+01 -.492E+00 -.732E+01   0.113E-03 -.257E-02 -.631E-02
   -.617E+02 -.541E+02 -.159E+04   0.663E+02 0.562E+02 0.160E+04   -.457E+01 -.210E+01 -.766E+01   0.279E-02 -.750E-03 -.511E-02
   0.100E+03 -.956E+01 -.157E+04   -.103E+03 0.961E+01 0.158E+04   0.325E+01 -.412E-01 -.701E+01   -.127E-01 -.396E-02 -.428E-03
   0.814E+02 -.413E+02 -.161E+04   -.863E+02 0.439E+02 0.162E+04   0.492E+01 -.260E+01 -.780E+01   -.672E-02 -.600E-02 -.455E-02
   -.968E+02 -.180E+02 -.161E+04   0.103E+03 0.188E+02 0.161E+04   -.581E+01 -.862E+00 -.727E+01   0.393E-02 -.175E-03 0.120E-02
   0.657E+02 0.584E+02 -.156E+04   -.710E+02 -.587E+02 0.157E+04   0.530E+01 0.291E+00 -.745E+01   -.571E-03 0.459E-02 -.160E-02
   0.876E+02 0.499E+02 -.160E+04   -.925E+02 -.526E+02 0.161E+04   0.496E+01 0.267E+01 -.782E+01   -.472E-02 0.770E-02 -.474E-02
   -.106E+03 0.267E+02 -.160E+04   0.111E+03 -.272E+02 0.160E+04   -.571E+01 0.530E+00 -.729E+01   0.342E-02 0.320E-03 0.136E-03
   -.450E+02 0.779E+02 -.156E+04   0.494E+02 -.797E+02 0.157E+04   -.441E+01 0.181E+01 -.775E+01   0.749E-02 -.927E-03 -.123E-01
   0.929E+02 -.381E+02 -.261E+04   -.903E+02 0.357E+02 0.262E+04   -.261E+01 0.240E+01 -.439E+01   -.397E-03 0.555E-04 0.577E-02
   -.986E+02 0.106E+03 -.127E+04   0.119E+03 -.128E+03 0.132E+04   -.204E+02 0.222E+02 -.505E+02   -.672E-01 -.184E-01 0.601E-01
   0.190E+02 -.255E+02 -.813E+03   -.238E+02 0.313E+02 0.800E+03   0.481E+01 -.583E+01 0.129E+02   -.227E-01 -.414E-03 0.455E-02
   0.168E+02 -.944E+01 0.341E+02   -.526E-12 -.711E-13 -.151E-10   -.168E+02 0.948E+01 -.340E+02   -.972E-01 -.276E-01 0.348E-01

 POSITION                                       TOTAL-FORCE (eV/Angst)
      8.46781      1.94101      0.00000         0.012734      0.005988      2.528152
      8.46781      5.82303      0.00000         0.012960     -0.004534      2.531635
      2.97781      1.94101      0.00000         0.002935      0.013274      2.535574
      8.46781      9.70504      0.00000         0.017970     -0.001730      2.510798
      2.97781      5.82303      0.00000         0.002082     -0.012168      2.535655
      2.97781      9.70504      0.00000        -0.006505     -0.001326      2.450860
      5.72281      0.00000      1.94101         0.005966      0.059361     -0.958684
      5.72281      7.76403      1.94101         0.009681     -0.064314     -0.952961
      0.23281      0.00000      1.94101        -0.046846      0.051210     -1.013660
      5.72281      3.88202      1.94101        -0.025807      0.001986     -0.953461
      0.23281      3.88202      1.94101        -0.016531      0.005875     -0.871888
      0.23281      7.76403      1.94101        -0.045945     -0.057740     -1.002465
      8.46643      1.94993      3.89454        -0.001962      0.000953      0.000653
      8.46336      9.70431      3.89218         0.000938     -0.001988      0.004993
      2.97040      1.94192      3.90003        -0.000206      0.000159      0.003437
      8.46673      5.81483      3.89597        -0.002393      0.002791      0.001656
      2.97080      5.82152      3.90049         0.001703      0.001637      0.001026
      2.97588      9.70400      3.86994        -0.002715     -0.000237      0.007053
      0.21331      7.76209      5.76658        -0.000259      0.006205      0.004177
      5.72502      7.75206      5.78042         0.001124     -0.002019      0.004704
      0.22494      3.88242      5.81416         0.001134      0.001474     -0.003207
      0.21433      0.00254      5.76225         0.001693     -0.002417      0.006890
      5.72532      0.00894      5.77772        -0.002572     -0.003200      0.008063
      5.71008      3.88103      5.78522         0.001617      0.001995      0.000858
      8.46607      5.81741      7.83667        -0.003393     -0.000615     -0.006243
      8.46896      1.95044      7.83102        -0.001831     -0.001392     -0.001586
      2.94132      5.82780      7.83729         0.001191      0.004379     -0.000492
      2.96594      9.70457      7.70863        -0.009224      0.000012      0.011332
      2.94366      1.93092      7.83725        -0.000081     -0.005022      0.009671
      8.45091      9.70391      7.82700         0.004568     -0.001597     -0.002490
      0.18216      0.05948      9.50371         0.006807     -0.001817      0.001790
      5.73311      0.07075      9.53194        -0.003339      0.003556      0.008762
      0.18011      7.70694      9.51406         0.001547      0.006160     -0.002166
      5.71617      7.69687      9.53773        -0.000735     -0.001238      0.000182
      0.21415      3.88326      9.61894         0.000925     -0.001016      0.005200
      5.70294      3.88371      9.51157         0.000028     -0.005010      0.001831
      7.09531      3.88202      0.00000         1.135104     -0.002053     -0.454432
      1.60531      0.00000      0.00000         1.148223     -0.014208     -0.462653
      7.09531      7.76403      0.00000         1.132237      0.007403     -0.452247
      9.84031      0.00000      0.00000        -1.143183     -0.004226     -0.468546
      9.84031      3.88202      0.00000        -1.139159     -0.002042     -0.462118
      1.60531      3.88202      0.00000         1.141971     -0.001617     -0.462604
      4.35031      7.76403      0.00000        -1.137268      0.017468     -0.452219
      4.35031      0.00000      0.00000        -1.137138     -0.016474     -0.453704
      7.09531      0.00000      0.00000         1.132951     -0.005588     -0.453241
      4.35031      3.88202      0.00000        -1.138638     -0.001436     -0.461921
      9.84031      7.76403      0.00000        -1.143362      0.006032     -0.467655
      1.60531      7.76403      0.00000         1.148025      0.015477     -0.462021
      4.35031      9.70504      1.94101        -0.344517     -0.003282     -0.347139
      7.09531      9.70504      1.94101         0.340090     -0.001692     -0.312432
      4.35031      1.94101      1.94101        -0.362654      0.009652     -0.292560
      1.60531      1.94101      1.94101         0.363583      0.035589     -0.306659
      9.84031      1.94101      1.94101        -0.352247      0.015076     -0.335083
      9.84031      9.70504      1.94101        -0.356881     -0.000366     -0.310145
      7.09531      1.94101      1.94101         0.348078     -0.009805     -0.312751
      1.60531      9.70504      1.94101         0.360296     -0.004879     -0.352745
      4.35031      5.82303      1.94101        -0.364444     -0.013582     -0.284792
      1.60531      5.82303      1.94101         0.365453     -0.033687     -0.311943
      9.84031      5.82303      1.94101        -0.352630     -0.013941     -0.332520
      7.09531      5.82303      1.94101         0.347272      0.010491     -0.312981
[...]
      6.93213      9.71219      9.61352         0.002058     -0.001413     -0.003546
      1.63401      9.75082      9.78028         0.002531     -0.003868      0.007830
      4.31794      9.68873      9.81923         0.005356      0.003478     -0.009138
      4.41158      1.93265      9.65431         0.000421     -0.000777      0.001560
      1.54852      1.80766      9.64683         0.002717     -0.004909     -0.001655
      9.93769      9.70452      9.60344         0.000741      0.001876     -0.004239
      9.83435      1.81925      9.67124        -0.000515     -0.003993     -0.002210
      7.00122      1.95283      9.68398        -0.000409     -0.001541     -0.000988
      4.40864      5.81697      9.64677         0.000101      0.000501     -0.001932
      9.83167      5.95085      9.67858        -0.002752      0.001729     -0.002620
      6.99580      5.80734      9.68350        -0.000898      0.001916     -0.001143
      1.53977      5.94051      9.62642         0.005627      0.003597     -0.002375
      2.83158      9.18375     11.24674         0.002694      0.009638     -0.020632
      4.00841      8.09325     13.77128         0.042290     -0.002569     -0.002387
      3.59440      8.53596     12.76858         0.013569      0.012103     -0.027922
    total drift:                               -0.087786      0.008761      0.112081

  FREE ENERGIE OF THE ION-ELECTRON SYSTEM (eV)
  free  energy   TOTEN  =      -906.54777598 eV

  energy  without entropy=     -906.54777598  energy(sigma->0) =     -906.54777598

 d Force = 0.1110559E-03[ 0.591E-04, 0.163E-03]  d Energy = 0.1588850E-03-0.478E-04
 d Force =-0.8747789E+00[-0.875E+00,-0.874E+00]  d Ewald  =-0.8747793E+00 0.431E-06

 stress matrix after NEB project (eV)
    -71.37120      0.05624      1.16296
      0.05624   -124.01874      0.04619
      1.16342      0.04605    -68.30306
  FORCES: max atom, RMS     0.042435    0.006771
  FORCE total and by dimension    0.071339    0.042290
  Stress total and by dimension  158.563934  124.018740

 reached required accuracy - stopping structural energy minimisation
 writing wavefunctions

 total charge

[...]

 magnetization (x)

# of ion     s       p       d       f       tot
  1        0.000   0.000  -0.000  -0.000  -0.000
  2       -0.000   0.000  -0.000  -0.000  -0.000
  3       -0.000   0.000   0.000  -0.000  -0.000
  4        0.000   0.000   0.000  -0.000   0.000
  5       -0.000   0.000  -0.000  -0.000  -0.000
  6        0.000  -0.000   0.000  -0.000  -0.000
  7       -0.000   0.000  -0.000   0.000   0.000
  8        0.000  -0.000   0.000   0.000   0.000
  9        0.000   0.000   0.000   0.000   0.000
 10       -0.000  -0.000  -0.000  -0.000  -0.000
 11        0.000   0.000   0.000  -0.000  -0.000
 12        0.000   0.000   0.000   0.000   0.000
 13       -0.000   0.000   0.000  -0.000  -0.000
 14        0.000   0.000   0.000   0.000   0.000
 15       -0.000   0.000   0.000  -0.000  -0.000
 16       -0.000   0.000   0.000  -0.000  -0.000
 17       -0.000   0.000   0.000  -0.000  -0.000
 18        0.000   0.000   0.000   0.000   0.000
 19        0.000   0.000  -0.000  -0.000  -0.000
 20        0.000   0.000   0.000   0.000   0.000
 21        0.000   0.000  -0.000  -0.004  -0.004
 22       -0.000  -0.000   0.000  -0.000  -0.000
 23        0.000   0.000   0.000  -0.000   0.000
 24       -0.000  -0.000   0.000  -0.000  -0.000
 25        0.000   0.000  -0.000  -0.005  -0.005
 26        0.000   0.000  -0.000  -0.004  -0.004
 27       -0.000   0.000  -0.000  -0.001  -0.001
 28       -0.000  -0.000   0.001  -0.008  -0.008
 29       -0.000   0.000  -0.000  -0.002  -0.002
 30        0.000   0.000   0.000  -0.001  -0.001
 31        0.000  -0.000  -0.000  -0.010  -0.011
 32       -0.000  -0.000  -0.003  -0.036  -0.039
 33       -0.000  -0.001  -0.002  -0.015  -0.018
 34        0.000   0.000   0.001  -0.003  -0.002
 35        0.003   0.007  -0.013  -0.975  -0.977
 36        0.000   0.000  -0.000  -0.002  -0.002
 37        0.000   0.000   0.000   0.000   0.000
 38        0.000  -0.000   0.000   0.000  -0.000
 39        0.000  -0.000   0.000   0.000  -0.000
 40        0.000  -0.000   0.000   0.000  -0.000
 41        0.000   0.000   0.000   0.000   0.000
 42        0.000   0.000   0.000   0.000   0.000
 43        0.000  -0.000   0.000   0.000  -0.000
 44        0.000  -0.000   0.000   0.000  -0.000
 45        0.000   0.000   0.000   0.000   0.000
 46        0.000   0.000   0.000   0.000   0.000
 47        0.000  -0.000   0.000   0.000  -0.000
 48        0.000  -0.000   0.000   0.000  -0.000
 49       -0.000  -0.000   0.000   0.000  -0.000
 50       -0.000  -0.000   0.000   0.000  -0.000
 51       -0.000  -0.000   0.000   0.000  -0.000
 52       -0.000  -0.000   0.000   0.000  -0.000
 53        0.000   0.000   0.000   0.000   0.000
 54        0.000  -0.000   0.000   0.000  -0.000
 55        0.000   0.000   0.000   0.000   0.000
 56        0.000  -0.000   0.000   0.000  -0.000
 57       -0.000  -0.000   0.000   0.000  -0.000
 58       -0.000   0.000   0.000   0.000   0.000
 59        0.000   0.000   0.000   0.000   0.000
 60        0.000   0.000   0.000   0.000   0.000
[...]
 97       -0.000  -0.010   0.000   0.000  -0.010
 98       -0.001  -0.059   0.000   0.000  -0.060
 99       -0.008  -0.181   0.000   0.000  -0.189
100        0.000   0.002   0.000   0.000   0.002
101        0.000   0.003   0.000   0.000   0.004
102       -0.000  -0.007   0.000   0.000  -0.007
103        0.000   0.004   0.000   0.000   0.005
104        0.000   0.004   0.000   0.000   0.004
105        0.000   0.000   0.000   0.000   0.000
106        0.000   0.005   0.000   0.000   0.005
107        0.000   0.000   0.000   0.000   0.000
108        0.000   0.002   0.000   0.000   0.002
109       -0.051  -0.049  -0.321   0.000  -0.422
110       -0.001  -0.013   0.000   0.000  -0.014
111        0.001  -0.000   0.000   0.000   0.000
tot       -0.056  -0.284  -0.340  -1.065  -1.745