 vasp.5.3.5 31Mar14 (build May 27 2014 14:39:49) gamma-only

 executed on           LinuxIFORT date 2020.10.22  01:48:53

 INCAR:
 POTCAR:    PAW_PBE Ce 23Dec2003
 POTCAR:    PAW_PBE O 08Apr2002
 POTCAR:    PAW_PBE Pt 04Feb2005
 POTCAR:    PAW_PBE Ce 23Dec2003
   VRHFIN =Ce : [core= Kr 4d10]

   TITEL  = PAW_PBE Ce 23Dec2003
   POMASS =  140.115; ZVAL   =   12.000    mass and valenz
   ENMAX  =  273.042; ENMIN  =  204.781 eV

 POTCAR:    PAW_PBE O 08Apr2002
   VRHFIN =O: s2p4

   TITEL  = PAW_PBE O 08Apr2002
   POMASS =   16.000; ZVAL   =    6.000    mass and valenz
   ENMAX  =  400.000; ENMIN  =  300.000 eV

 POTCAR:    PAW_PBE Pt 04Feb2005
   VRHFIN =Pt: s1d9

   TITEL  = PAW_PBE Pt 04Feb2005
   POMASS =  195.080; ZVAL   =   10.000    mass and valenz
   ENMAX  =  230.283; ENMIN  =  172.712 eV

 Optimization of the real space projectors (new method)

 maximal supplied QI-value         = 13.98
 optimisation between [QCUT,QGAM] = [ 10.21, 20.42] = [ 29.18,116.73] Ry
 Optimized for a Real-space Cutoff    1.65 Angstroem

   l    n(q)    QCUT    max X(q) W(low)/X(q) W(high)/X(q)  e(spline)
   0     10    10.208     8.553    0.18E-04    0.75E-05    0.12E-06
   0     10    10.208     8.106    0.26E-04    0.16E-04    0.24E-06
   1     10    10.208     4.160    0.93E-05    0.96E-06    0.75E-07
   1     10    10.208     3.597    0.23E-04    0.26E-04    0.15E-06
   2      9    10.208     8.183    0.11E-03    0.28E-03    0.51E-06
   2      9    10.208     6.077    0.74E-04    0.19E-03    0.37E-06
   3      9    10.208   116.013    0.19E-03    0.98E-05    0.18E-06
   3      9    10.208   108.937    0.19E-03    0.10E-04    0.18E-06
 Optimization of the real space projectors (new method)

[...]

   l    n(q)    QCUT    max X(q) W(low)/X(q) W(high)/X(q)  e(spline)
   0      9    10.150    20.381    0.17E-03    0.18E-03    0.41E-06
   0      9    10.150    15.268    0.18E-03    0.20E-03    0.43E-06
   1      9    10.150     5.964    0.16E-03    0.20E-03    0.36E-06
   1      9    10.150     5.382    0.13E-03    0.16E-03    0.33E-06
 Optimization of the real space projectors (new method)

 maximal supplied QI-value         = 14.36
 optimisation between [QCUT,QGAM] = [ 10.20, 20.39] = [ 29.12,116.47] Ry
 Optimized for a Real-space Cutoff    1.55 Angstroem

   l    n(q)    QCUT    max X(q) W(low)/X(q) W(high)/X(q)  e(spline)
   2      9    10.197    66.195    0.14E-03    0.26E-03    0.16E-06
   2      9    10.197    64.643    0.14E-03    0.26E-03    0.16E-06
   0      9    10.197    95.520    0.52E-04    0.23E-04    0.61E-07
   0      9    10.197    63.403    0.50E-04    0.22E-04    0.58E-07
   1      9    10.197    19.961    0.18E-03    0.80E-04    0.90E-07
   1      9    10.197    13.289    0.15E-03    0.68E-04    0.78E-07
  PAW_PBE Ce 23Dec2003                  :
  PAW_PBE O 08Apr2002                   :
  PAW_PBE Pt 04Feb2005                  :

 POSCAR: CeO2-110-l3-p23:
  positions in direct lattice
 exchange correlation table for  LEXCH =        8
   RHO(1)=    0.500       N(1)  =     2000
   RHO(2)=  100.500       N(2)  =     4000

 VTST: version 3.1, (03/28/14)

 CHAIN: initializing optimizer

 OPT: Using VASP Conjugate-Gradient optimizer
 CHAIN: Read ICHAIN            0

 POSCAR: CeO2-110-l3-p23:
  positions in direct lattice

 ion  position               nearest neighbor table
   1  0.771  0.167  0.000-  36 2.38  40 2.38  39 2.38  44 2.38  52 2.38  54 2.38
   2  0.771  0.500  0.000-  36 2.38  38 2.38  40 2.38  46 2.38  58 2.38  59 2.38
   3  0.271  0.167  0.000-  41 2.38  45 2.38  43 2.38  37 2.38  50 2.38  51 2.38
   4  0.771  0.833  0.000-  38 2.38  46 2.38  44 2.38  39 2.38  49 2.38  53 2.38
   5  0.271  0.500  0.000-  41 2.38  42 2.38  45 2.38  47 2.38  56 2.38  57 2.38
   6  0.271  0.833  0.000-  42 2.38  47 2.38  43 2.38  37 2.38  48 2.38  55 2.38
   7  0.521  0.000  0.079-  60 2.36  49 2.38  50 2.38  54 2.38  48 2.38  44 2.38  43 2.38  66 2.39

   8  0.521  0.667  0.079-  48 2.38  49 2.38  56 2.38  59 2.38  38 2.38  42 2.38  62 2.38  61 2.38

[...]

  23  0.523  0.002  0.235-  72 2.34  73 2.34  66 2.35  90 2.36  60 2.37  78 2.40  88 2.43  74 2.44

  24  0.517  0.334  0.233-  84 2.31  68 2.32  70 2.34  78 2.35  80 2.36  72 2.41  77 2.42  87 2.51
                           107 3.27
  25  0.765  0.502  0.312- 105 2.30  77 2.33  84 2.33  91 2.34  89 2.35  93 2.36  75 2.37 108 3.09

[...]

  31  0.027  1.000  0.385- 102 2.22  95 2.24 100 2.27 101 2.30  85 2.31  97 2.37
  32  0.526  0.997  0.387-  98 2.18  96 2.26  88 2.26  90 2.29  99 2.29 107 3.12
  33  0.031  0.682  0.387-  97 2.21 106 2.21  86 2.23  91 2.23 101 2.24
  34  0.543  0.681  0.391-  96 2.27  89 2.30  92 2.33  98 2.42 105 2.44
  35  0.020  0.322  0.391- 104 2.13 102 2.31  93 2.32  94 2.34 100 2.36 106 2.40
  36  0.646  0.333  0.000-   1 2.38   2 2.38  10 2.38
  37  0.146  0.000  0.000-   3 2.38   6 2.38   9 2.38
  38  0.646  0.667  0.000-   4 2.38   2 2.38   8 2.38
  39  0.896  0.000  0.000-   1 2.38   4 2.38   9 2.38
  40  0.896  0.333  0.000-   1 2.38   2 2.38  11 2.38
  41  0.146  0.333  0.000-   3 2.38   5 2.38  11 2.38
  42  0.396  0.667  0.000-   6 2.38   5 2.38   8 2.38
  43  0.396  0.000  0.000-   3 2.38   6 2.38   7 2.38
  44  0.646  0.000  0.000-   1 2.38   4 2.38   7 2.38
  45  0.396  0.333  0.000-   3 2.38   5 2.38  10 2.38
  46  0.896  0.667  0.000-   4 2.38   2 2.38  12 2.38
  47  0.146  0.667  0.000-   6 2.38   5 2.38  12 2.38
  48  0.396  0.833  0.079-   8 2.38   7 2.38   6 2.38  18 2.39
  49  0.646  0.833  0.079-   8 2.38   7 2.38   4 2.38  14 2.38
  50  0.396  0.167  0.079-  10 2.38   7 2.38   3 2.38  15 2.39
  51  0.146  0.167  0.079-  11 2.38   9 2.38   3 2.38  15 2.38
  52  0.896  0.167  0.079-  11 2.38   9 2.38   1 2.38  13 2.39
  53  0.896  0.833  0.079-  12 2.38   9 2.38   4 2.38  14 2.39
  54  0.646  0.167  0.079-  10 2.38   7 2.38   1 2.38  13 2.38
  55  0.146  0.833  0.079-  12 2.38   9 2.38   6 2.38  18 2.39
  56  0.396  0.500  0.079-   8 2.38  10 2.38   5 2.38  17 2.38
  57  0.146  0.500  0.079-  17 2.37  12 2.38  11 2.38   5 2.38
  58  0.896  0.500  0.079-  16 2.37  12 2.38  11 2.38   2 2.38
  59  0.646  0.500  0.079-  16 2.37  10 2.38   8 2.38   2 2.38
  60  0.647  0.000  0.156-   7 2.36  23 2.37  14 2.37  13 2.37
  61  0.396  0.668  0.157-  18 2.36  20 2.37   8 2.38  17 2.38
  62  0.645  0.669  0.158-  14 2.36  20 2.37   8 2.38  16 2.39
  63  0.896  0.668  0.156-  19 2.36  12 2.37  14 2.37  16 2.38
  64  0.147  0.000  0.156-  22 2.34   9 2.36  15 2.36  18 2.38
  65  0.896  0.999  0.158-  22 2.33  14 2.38  13 2.39   9 2.39
  66  0.397  0.999  0.158-  23 2.35  18 2.38  15 2.39   7 2.39
  67  0.146  0.666  0.157-  19 2.34  17 2.37  12 2.37  18 2.38
  68  0.394  0.333  0.156-  24 2.32  10 2.37  15 2.37  17 2.38
  69  0.895  0.333  0.157-  13 2.37  21 2.37  11 2.38  16 2.38
  70  0.645  0.334  0.157-  24 2.34  10 2.36  16 2.38  13 2.38
  71  0.146  0.333  0.157-  21 2.36  15 2.38  11 2.38  17 2.39
  72  0.646  0.166  0.234-  13 2.33  23 2.34  24 2.41  26 2.47
  73  0.647  0.839  0.236-  23 2.34  14 2.36  30 2.43  20 2.43
  74  0.397  0.830  0.238-  20 2.32  28 2.37  18 2.42  23 2.44
  75  0.893  0.502  0.234-  16 2.34  25 2.37  19 2.38  21 2.42
  76  0.147  0.834  0.234-  18 2.32  22 2.34  19 2.39  28 2.57
  77  0.644  0.503  0.234-  25 2.33  20 2.35  16 2.37  24 2.42
  78  0.394  0.169  0.236-  24 2.35  15 2.36  23 2.40  29 2.44
  79  0.896  0.170  0.236-  26 2.34  21 2.34  13 2.39  22 2.44
  80  0.396  0.501  0.234-  17 2.34  24 2.36  20 2.37  27 2.47
  81  0.141  0.500  0.235-  19 2.35  21 2.36  27 2.36  17 2.39
  82  0.145  0.163  0.235-  22 2.34  15 2.36  21 2.41  29 2.43
  83  0.897  0.828  0.237-  19 2.32  30 2.36  14 2.40  22 2.43
  84  0.642  0.339  0.307- 107 2.04  24 2.31  25 2.33  26 2.48 108 2.69
  85  0.901  0.998  0.311-  31 2.31  30 2.33  22 2.34  26 2.41
  86  0.146  0.678  0.313-  33 2.23  28 2.33  19 2.38  27 2.44
  87  0.394  0.332  0.318- 107 1.99  29 2.39  27 2.43  24 2.51
  88  0.651  0.007  0.315-  32 2.26  26 2.35  30 2.41  23 2.43
  89  0.652  0.673  0.312-  34 2.30  30 2.35  25 2.35  20 2.37
  90  0.401  0.000  0.313-  32 2.29  23 2.36  28 2.36  29 2.41
[...]
  93  0.898  0.343  0.315-  35 2.32  25 2.36  21 2.39  26 2.41
  94  0.142  0.323  0.314-  29 2.31  35 2.34  21 2.36  27 2.43
  95  0.150  0.996  0.313-  31 2.24  29 2.35  28 2.38  22 2.41
  96  0.654  0.846  0.393-  32 2.26  34 2.27  30 2.32
  97  0.150  0.834  0.395-  33 2.21  28 2.36  31 2.37
  98  0.409  0.847  0.394-  32 2.18  28 2.35  34 2.42
  99  0.407  0.158  0.396- 107 1.98  32 2.29  29 2.47
 100  0.146  0.158  0.394-  31 2.27  29 2.32  35 2.36
 101  0.910  0.836  0.390-  33 2.24  31 2.30  30 2.36
 102  0.908  0.154  0.387-  31 2.22  26 2.29  35 2.31
 103  0.664  0.180  0.401- 107 2.03 108 2.09  26 2.46
 104  0.875  0.391  0.439- 108 1.99  35 2.13
 105  0.687  0.523  0.398- 108 2.02  25 2.30  34 2.44
 106  0.113  0.508  0.392-  33 2.21  35 2.40  27 2.53
 107  0.528  0.259  0.360-  99 1.98  87 1.99 103 2.03  84 2.04 108 2.61  32 3.12  26 3.14  29 3.24
                            24 3.27
 108  0.709  0.353  0.412- 104 1.99 105 2.02 103 2.09 107 2.61  84 2.69  25 3.09  26 3.29

IMPORTANT INFORMATION: All symmetrisations will be switched off!
NOSYMM: (Re-)initialisation of all symmetry stuff for point group C_1.

 KPOINTS: CeO2-111-3x3-9layers         ! Comment

Automatic generation of k-mesh.
Space group operators:
 irot       det(A)        alpha          n_x          n_y          n_z        tau_x        tau_y        tau_z
    1     1.000000     0.000000     1.000000     0.000000     0.000000     0.000000     0.000000     0.000000

 Subroutine IBZKPT returns following result:

 Found      1 irreducible k-points:

 Following reciprocal coordinates:
            Coordinates               Weight
  0.000000  0.000000  0.000000      1.000000

 Following cartesian coordinates:
            Coordinates               Weight
  0.000000  0.000000  0.000000      1.000000

 I would recommend the setting:
   dimension x,y,z NGX =    72 NGY =   76 NGZ =  161
 SYSTEM =  unknown system
 POSCAR =  CeO2-110-l3-p23:

 Startparameter for this run:
   NWRITE =      2    write-flag & timer
   PREC   = accura    normal or accurate (medium, high low for compatibility)
   ISTART =      1    job   : 0-new  1-cont  2-samecut
   ICHARG =      0    charge: 1-file 2-atom 10-const
   ISPIN  =      2    spin polarized calculation?
   LNONCOLLINEAR =      F non collinear calculations
   LSORBIT =      F    spin-orbit coupling
   INIWAV =      1    electr: 0-lowe 1-rand  2-diag
   LASPH  =      T    aspherical Exc in radial PAW
   METAGGA=      F    non-selfconsistent MetaGGA calc.

 Electronic Relaxation 1
   ENCUT  =  400.0 eV  29.40 Ry    5.42 a.u.  17.91 18.99 40.29*2*pi/ulx,y,z
   ENINI  =  400.0     initial cutoff
   ENAUG  =  605.4 eV  augmentation charge cutoff
   NELM   =    100;   NELMIN=  2; NELMDL=  0     # of ELM steps
   EDIFF  = 0.1E-03   stopping-criterion for ELM
   LREAL  =      T    real-space projection
   NLSPLINE    = F    spline interpolate recip. space projectors
   LCOMPAT=      F    compatible to vasp.4.4
   GGA_COMPAT  = T    GGA compatible to vasp.4.4-vasp.4.6
   LMAXPAW     = -100 max onsite density
[...]
   -.372E+02 0.610E+02 -.311E+04   0.373E+02 -.593E+02 0.310E+04   -.239E-01 -.180E+01 0.534E+01   0.105E-02 0.375E-01 0.137E-01
   0.111E+02 0.205E+02 -.313E+04   -.134E+02 -.234E+02 0.313E+04   0.231E+01 0.290E+01 0.513E+01   -.714E-02 0.262E-01 -.521E-02
   -.434E+01 0.136E+03 -.313E+04   0.667E+01 -.134E+03 0.312E+04   -.232E+01 -.210E+01 0.582E+01   0.213E-03 -.175E-01 -.821E-02
   0.160E+03 0.215E+03 -.314E+04   -.159E+03 -.213E+03 0.314E+04   -.791E+00 -.161E+01 0.428E+01   -.574E-02 0.327E-02 -.152E-01
   -.249E+03 -.114E+03 -.304E+04   0.245E+03 0.115E+03 0.304E+04   0.393E+01 -.457E+00 0.906E+00   -.172E-02 0.883E-02 0.246E-01
   0.684E+02 -.602E+00 0.161E+04   -.745E+02 0.618E+00 -.161E+04   0.720E+01 0.233E-01 0.507E+01   0.693E-02 -.287E-01 -.752E-03
   0.676E+02 0.523E+00 0.161E+04   -.736E+02 -.514E+00 -.161E+04   0.716E+01 0.145E-01 0.508E+01   0.126E-02 -.176E-01 -.820E-03
   0.688E+02 -.534E-01 0.160E+04   -.749E+02 0.614E-01 -.161E+04   0.718E+01 -.197E-01 0.510E+01   -.993E-02 0.303E-02 0.598E-03
   -.683E+02 0.398E+00 0.161E+04   0.743E+02 -.429E+00 -.161E+04   -.719E+01 0.939E-02 0.506E+01   -.762E-02 0.259E-01 -.175E-02
   -.687E+02 -.417E+00 0.161E+04   0.747E+02 0.440E+00 -.161E+04   -.718E+01 0.119E-01 0.509E+01   -.697E-02 -.289E-01 -.850E-03
   0.678E+02 -.678E+00 0.160E+04   -.738E+02 0.667E+00 -.161E+04   0.717E+01 0.143E-01 0.509E+01   -.769E-02 0.295E-02 0.446E-03
   -.678E+02 0.755E-02 0.160E+04   0.739E+02 -.127E-01 -.161E+04   -.717E+01 -.180E-01 0.508E+01   -.512E-02 0.146E-01 -.185E-03
   -.678E+02 0.761E+00 0.160E+04   0.738E+02 -.745E+00 -.161E+04   -.718E+01 0.412E-02 0.506E+01   -.973E-03 -.176E-01 -.692E-03
   0.685E+02 0.666E+00 0.161E+04   -.745E+02 -.692E+00 -.161E+04   0.718E+01 0.136E-02 0.509E+01   0.746E-02 0.257E-01 -.207E-02
   -.675E+02 -.754E+00 0.160E+04   0.736E+02 0.743E+00 -.161E+04   -.719E+01 0.134E-01 0.506E+01   0.771E-02 0.299E-02 0.313E-03
   -.684E+02 -.162E-02 0.160E+04   0.744E+02 0.103E-01 -.161E+04   -.720E+01 -.206E-01 0.506E+01   0.972E-02 0.298E-02 0.153E-03
   0.674E+02 0.151E+00 0.160E+04   -.734E+02 -.149E+00 -.161E+04   0.719E+01 -.297E-01 0.506E+01   0.526E-02 0.146E-01 -.995E-04
   -.369E+01 0.136E+01 0.971E+03   0.413E+01 -.136E+01 -.970E+03   -.772E+00 0.324E-01 -.999E+00   -.756E-02 -.232E-03 -.110E-01
   0.647E+01 0.242E+01 0.975E+03   -.702E+01 -.240E+01 -.974E+03   0.914E+00 -.270E-01 -.822E+00   -.503E-02 -.928E-03 0.297E-02
   -.309E+01 0.144E+01 0.974E+03   0.355E+01 -.136E+01 -.973E+03   -.819E+00 -.155E+00 -.945E+00   0.632E-02 -.710E-03 0.433E-02
   0.408E+01 -.229E+01 0.976E+03   -.457E+01 0.230E+01 -.975E+03   0.836E+00 0.140E-01 -.874E+00   -.696E-02 -.918E-03 0.561E-02
   -.574E+01 0.679E+00 0.975E+03   0.625E+01 -.673E+00 -.974E+03   -.850E+00 -.474E-01 -.894E+00   -.129E-01 0.299E-04 -.154E-01
   -.445E+01 0.143E+00 0.974E+03   0.494E+01 -.189E+00 -.973E+03   -.879E+00 0.104E+00 -.101E+01   0.513E-02 0.588E-03 0.355E-02
   0.528E+01 -.893E-01 0.978E+03   -.584E+01 0.324E-01 -.978E+03   0.903E+00 0.905E-01 -.837E+00   0.136E-01 0.188E-02 -.172E-01
   0.212E+01 0.264E+01 0.973E+03   -.258E+01 -.260E+01 -.973E+03   0.809E+00 -.696E-01 -.944E+00   0.805E-02 -.500E-03 -.928E-02
   -.409E+01 -.306E+01 0.970E+03   0.467E+01 0.301E+01 -.970E+03   -.923E+00 0.885E-01 -.821E+00   0.110E-02 0.110E-02 0.421E-02
   0.374E+01 -.166E+00 0.972E+03   -.434E+01 0.154E+00 -.971E+03   0.951E+00 -.816E-02 -.805E+00   -.120E-02 0.156E-02 0.517E-02
   -.728E+01 -.357E+00 0.975E+03   0.793E+01 0.307E+00 -.974E+03   -.101E+01 0.577E-01 -.838E+00   0.543E-02 -.382E-03 0.876E-02
   0.779E+01 -.297E+01 0.974E+03   -.846E+01 0.287E+01 -.974E+03   0.102E+01 0.165E+00 -.749E+00   -.488E-02 -.521E-03 0.784E-02
   0.546E+00 0.616E+01 0.343E+03   -.304E+00 -.617E+01 -.343E+03   -.245E+00 0.607E-02 0.246E+00   0.148E-02 0.435E-02 0.126E-02
[...]
   -.344E+02 0.203E+02 -.925E+03   0.361E+02 -.214E+02 0.921E+03   -.165E+01 0.107E+01 0.331E+01   0.704E-02 0.110E-01 -.477E-02
   -.762E+02 0.285E+02 -.162E+04   0.830E+02 -.272E+02 0.163E+04   -.686E+01 -.124E+01 -.747E+01   0.156E-01 -.369E-01 -.109E-01
   -.110E+03 0.188E+02 -.164E+04   0.117E+03 -.161E+02 0.165E+04   -.672E+01 -.267E+01 -.780E+01   0.407E-02 0.828E-02 0.251E-02
   0.100E+03 0.830E+02 -.163E+04   -.107E+03 -.858E+02 0.164E+04   0.671E+01 0.288E+01 -.733E+01   -.553E-02 -.335E-01 0.117E-03
   0.148E+03 -.516E+02 -.168E+04   -.163E+03 0.480E+02 0.170E+04   0.155E+02 0.356E+01 -.150E+02   -.557E-02 0.231E-01 -.809E-02
   -.125E+03 -.334E+02 -.163E+04   0.130E+03 0.343E+02 0.164E+04   -.585E+01 -.929E+00 -.775E+01   0.481E-02 -.355E-02 0.107E-02
   0.820E+02 0.266E+02 -.161E+04   -.884E+02 -.260E+02 0.161E+04   0.641E+01 -.586E+00 -.688E+01   -.155E-01 0.122E-02 -.742E-02
   0.284E+02 0.487E+02 -.156E+04   -.340E+02 -.481E+02 0.157E+04   0.560E+01 -.591E+00 -.727E+01   0.692E-03 -.144E-01 0.597E-02
   -.177E+02 0.124E+03 -.168E+04   0.265E+02 -.141E+03 0.169E+04   -.873E+01 0.163E+02 -.126E+02   0.374E-02 0.542E-02 -.254E-03
   -.584E+02 -.125E+03 -.174E+04   0.661E+02 0.134E+03 0.175E+04   -.773E+01 -.889E+01 -.137E+02   0.145E-01 -.230E-03 0.174E-01
   0.744E+02 -.125E+03 -.159E+04   -.749E+02 0.137E+03 0.160E+04   0.472E+00 -.124E+02 -.512E+01   0.469E-02 -.470E-02 0.288E-02
   -.136E+03 0.932E+01 -.157E+04   0.139E+03 -.118E+02 0.158E+04   -.316E+01 0.247E+01 -.431E+01   -.130E-01 -.349E-02 0.566E-02
   0.183E+03 -.171E+03 -.224E+04   -.183E+03 0.171E+03 0.224E+04   -.279E+00 -.339E-02 -.127E+01   -.173E-01 0.109E-01 0.475E-02
   0.161E+03 -.826E+02 -.273E+04   -.158E+03 0.853E+02 0.273E+04   -.286E+01 -.267E+01 -.726E+00   -.707E-02 0.827E-02 -.903E-02
   -.338E+00 0.226E+02 0.267E+02   -.284E-12 0.341E-12 -.205E-10   0.365E+00 -.227E+02 -.266E+02   -.746E-01 0.402E-01 -.107E+00

 POSITION                                       TOTAL-FORCE (eV/Angst)
      8.46781      1.94101      0.00000        -0.004362     -0.009422      2.512116
      8.46781      5.82303      0.00000         0.013303     -0.000844      2.469283
      2.97781      1.94101      0.00000         0.007731     -0.009654      2.521683
      8.46781      9.70504      0.00000         0.014625      0.009485      2.523967
      2.97781      5.82303      0.00000         0.007928      0.002445      2.488480
      2.97781      9.70504      0.00000        -0.009430      0.006603      2.542680
      5.72281      0.00000      1.94101        -0.019582     -0.008440     -0.905315
      5.72281      7.76403      1.94101        -0.049296      0.079166     -0.854311
      0.23281      0.00000      1.94101        -0.012119     -0.044879     -0.990282
      5.72281      3.88202      1.94101        -0.022450     -0.039467     -1.046412
      0.23281      3.88202      1.94101        -0.011276     -0.029725     -0.844176
      0.23281      7.76403      1.94101        -0.007914      0.073844     -0.956308
      8.46238      1.94848      3.88953        -0.000077     -0.001698     -0.003065
      8.45561      9.70547      3.89146         0.001406      0.000634      0.001873
      2.96933      1.93448      3.89119        -0.001910      0.003564      0.005222
      8.46353      5.83523      3.87354         0.001219     -0.000978      0.004039
      2.97311      5.82838      3.88155         0.000783      0.000525     -0.002951
      2.97953      9.70023      3.89785         0.002455     -0.004540     -0.002447
      0.23493      7.77006      5.78257        -0.004312      0.002278      0.003574
      5.70476      7.77241      5.82180         0.001360     -0.005800      0.010063
      0.22503      3.87767      5.80538         0.000704      0.005771     -0.004893
      0.26262     11.62558      5.76750         0.007553     -0.002566     -0.001863
      5.74351      0.02779      5.79631         0.005323     -0.000021     -0.002861
      5.67630      3.88612      5.74473         0.003402      0.004227      0.002741
      8.40297      5.84606      7.69774         0.016135     -0.009648      0.002954
      8.53987      1.97430      7.78712         0.000752     -0.000084      0.002308
      2.86651      5.81354      7.75812         0.007675      0.008738      0.005792
      3.08348      9.69729      7.87561         0.011816     -0.023309      0.003721
      2.93948      1.91494      7.82908         0.006179     -0.004698     -0.004917
      8.51872      9.74922      7.80169         0.009008     -0.009344     -0.012417
      0.29708     11.64299      9.51820        -0.001890     -0.012667     -0.009772
      5.77049     11.61637      9.56958         0.003089     -0.005040     -0.001413
      0.34450      7.93690      9.56524        -0.005095      0.003628      0.005303
      5.96604      7.93634      9.66757         0.008183     -0.008025      0.010319
      0.21537      3.74552      9.66780         0.004844      0.000619     -0.018038
      7.09531      3.88202      0.00000         1.148893      0.010094     -0.461705
      1.60531      0.00000      0.00000         1.135061      0.006466     -0.455795
      7.09531      7.76403      0.00000         1.138819     -0.009021     -0.451758
      9.84031      0.00000      0.00000        -1.142560      0.004353     -0.463222
      9.84031      3.88202      0.00000        -1.140172      0.005111     -0.454771
      1.60531      3.88202      0.00000         1.136541      0.005868     -0.453948
      4.35031      7.76403      0.00000        -1.135646     -0.008900     -0.455239
      4.35031      0.00000      0.00000        -1.139918      0.001876     -0.463011
      7.09531      0.00000      0.00000         1.140475      0.000691     -0.456160
      4.35031      3.88202      0.00000        -1.145527      0.005539     -0.466175
      9.84031      7.76403      0.00000        -1.149981     -0.009280     -0.465851
      1.60531      7.76403      0.00000         1.145823     -0.013725     -0.465129
      4.35031      9.70504      1.94101        -0.344021      0.029705     -0.340150
      7.09531      9.70504      1.94101         0.358185     -0.013917     -0.348356
      4.35031      1.94101      1.94101        -0.352502     -0.081385     -0.312282
      1.60531      1.94101      1.94101         0.334178      0.026415     -0.354973
      9.84031      1.94101      1.94101        -0.355082     -0.040856     -0.295800
      9.84031      9.70504      1.94101        -0.382807      0.058877     -0.326628
      7.09531      1.94101      1.94101         0.359879      0.035316     -0.336385
      1.60531      9.70504      1.94101         0.361397     -0.034345     -0.321160
      4.35031      5.82303      1.94101        -0.348527      0.043017     -0.315914
      1.60531      5.82303      1.94101         0.350564     -0.019013     -0.336558
      9.84031      5.82303      1.94101        -0.350653      0.007459     -0.357634
      7.09531      5.82303      1.94101         0.347235      0.070565     -0.344737
      7.10228      0.00360      3.86049        -0.000439      0.002093      0.000991
[...]
      1.55778      3.76469      7.75543         0.014433      0.002616     -0.002934
      1.65203     11.59822      7.73236        -0.002148      0.008677     -0.004482
      7.18569      9.85581      9.69707         0.011178     -0.028932     -0.014000
      1.64869      9.70951      9.75205         0.005095      0.001774      0.002408
      4.49229      9.86053      9.74448        -0.011313     -0.025623      0.005021
      4.46737      1.84118      9.77127        -0.001948      0.006498      0.004307
      1.60591      1.83491      9.72648         0.016803     -0.018135      0.006229
      9.99222      9.74155      9.64271        -0.013907     -0.000208     -0.001186
      9.96855      1.79453      9.56639        -0.001454     -0.006187      0.009565
      7.29165      2.09512      9.90924        -0.003566     -0.004815     -0.014162
      9.61235      4.55092     10.83853        -0.002754      0.016407      0.034399
      7.54590      6.08583      9.82094         0.020912      0.005875     -0.019497
      1.23686      5.91641      9.69548        -0.001671      0.000154     -0.008544
      5.79238      3.01834      8.89485         0.014154     -0.010286     -0.009617
      7.78540      4.11000     10.17368         0.002262      0.023478      0.030284
    total drift:                               -0.047375      0.031417     -0.013230

  FREE ENERGIE OF THE ION-ELECTRON SYSTEM (eV)
  free  energy   TOTEN  =      -876.61704705 eV

  energy  without entropy=     -876.61704705  energy(sigma->0) =     -876.61704705

 stress matrix after NEB project (eV)
    -64.01351      3.68525      0.91093
      3.68565   -110.01002     -0.88600
      0.91098     -0.88529    -66.12576
  FORCES: max atom, RMS     0.038386    0.012585
  FORCE total and by dimension    0.130785    0.034399
  Stress total and by dimension  143.537253  110.010021

 reached required accuracy - stopping structural energy minimisation
 writing wavefunctions

 total charge

[...]

 magnetization (x)

# of ion     s       p       d       f       tot
  1       -0.000   0.000   0.000   0.000   0.000
  2        0.000  -0.000  -0.000  -0.000  -0.000
  3        0.000  -0.000  -0.000  -0.000  -0.000
  4        0.000  -0.000  -0.000  -0.000  -0.000
  5        0.000  -0.000   0.000   0.000   0.000
  6       -0.000  -0.000   0.000   0.000   0.000
  7        0.000  -0.000  -0.000  -0.000  -0.000
  8        0.000  -0.000  -0.000   0.000  -0.000
  9       -0.000  -0.000  -0.000  -0.000  -0.000
 10        0.000  -0.000  -0.000  -0.000  -0.000
 11        0.000  -0.000   0.000   0.000   0.000
 12        0.000  -0.000  -0.000   0.000  -0.000
 13       -0.000  -0.000   0.000   0.000   0.000
 14       -0.000  -0.000  -0.000  -0.000  -0.000
 15        0.000  -0.000   0.000   0.000   0.000
 16       -0.000  -0.000   0.000   0.000   0.000
 17       -0.000  -0.000   0.000   0.002   0.002
 18       -0.000  -0.000   0.000   0.000   0.000
 19       -0.000  -0.000   0.000   0.002   0.002
 20       -0.000  -0.000   0.000   0.003   0.003
 21       -0.000  -0.000   0.001   0.006   0.006
 22       -0.000  -0.000  -0.000   0.000   0.000
 23       -0.000  -0.000  -0.000   0.000   0.000
 24       -0.000  -0.000  -0.000   0.000   0.000
 25       -0.000  -0.000   0.000   0.001   0.001
 26        0.000  -0.000   0.000   0.000   0.000
 27       -0.004  -0.006   0.010   0.969   0.969
 28       -0.000  -0.000   0.000   0.003   0.003
 29       -0.000  -0.000   0.000   0.004   0.004
 30       -0.000  -0.000   0.000   0.003   0.003
 31        0.000  -0.000  -0.000   0.000   0.000
 32       -0.000  -0.000   0.000   0.007   0.007
 33       -0.000  -0.000  -0.000   0.001   0.001
 34       -0.003  -0.006   0.016   0.975   0.982
 35       -0.000  -0.000   0.000   0.002   0.003
 36        0.000  -0.000   0.000   0.000  -0.000
 37        0.000  -0.000   0.000   0.000  -0.000
 38        0.000   0.000   0.000   0.000   0.000
 39        0.000  -0.000   0.000   0.000  -0.000
 40       -0.000  -0.000   0.000   0.000  -0.000
 41       -0.000   0.000   0.000   0.000   0.000
 42       -0.000  -0.000   0.000   0.000  -0.000
 43        0.000  -0.000   0.000   0.000  -0.000
 44        0.000  -0.000   0.000   0.000  -0.000
 45       -0.000   0.000   0.000   0.000   0.000
 46       -0.000   0.000   0.000   0.000   0.000
 47       -0.000  -0.000   0.000   0.000  -0.000
 48        0.000  -0.000   0.000   0.000  -0.000
 49        0.000   0.000   0.000   0.000   0.000
 50       -0.000  -0.000   0.000   0.000  -0.000
 51       -0.000  -0.000   0.000   0.000  -0.000
 52        0.000  -0.000   0.000   0.000  -0.000
 53       -0.000   0.000   0.000   0.000   0.000
 54        0.000  -0.000   0.000   0.000  -0.000
 55        0.000  -0.000   0.000   0.000  -0.000
 56       -0.000  -0.000   0.000   0.000  -0.000
 57       -0.000  -0.000   0.000   0.000  -0.000
 58       -0.000  -0.000   0.000   0.000  -0.000
 59       -0.000  -0.000   0.000   0.000  -0.000
 60       -0.000  -0.000   0.000   0.000  -0.000
[...]
 94       -0.000  -0.005   0.000   0.000  -0.006
 95       -0.000  -0.000   0.000   0.000  -0.000
 96       -0.000  -0.009   0.000   0.000  -0.009
 97       -0.000  -0.000   0.000   0.000  -0.000
 98       -0.000  -0.004   0.000   0.000  -0.005
 99       -0.000  -0.000   0.000   0.000  -0.000
100       -0.000  -0.000   0.000   0.000  -0.000
101       -0.000  -0.000   0.000   0.000  -0.000
102       -0.000  -0.000   0.000   0.000  -0.000
103       -0.000  -0.000   0.000   0.000  -0.000
104       -0.000  -0.000   0.000   0.000  -0.000
105       -0.000  -0.004   0.000   0.000  -0.004
106       -0.000  -0.003   0.000   0.000  -0.003
107       -0.000  -0.000  -0.000   0.000  -0.001
108       -0.000  -0.000   0.000   0.000   0.000
tot       -0.011  -0.066   0.027   1.980   1.930