 vasp.5.3.5 31Mar14 (build May 27 2014 14:39:49) gamma-only

 executed on           LinuxIFORT date 2020.11.24  15:37:38

 INCAR:
 POTCAR:    PAW_PBE Ce 23Dec2003
 POTCAR:    PAW_PBE O 08Apr2002
 POTCAR:    PAW_PBE Pt 04Feb2005
 POTCAR:    PAW_PBE O 08Apr2002
 POTCAR:    PAW_PBE C 08Apr2002
 POTCAR:    PAW_PBE Ce 23Dec2003
   VRHFIN =Ce : [core= Kr 4d10]

   TITEL  = PAW_PBE Ce 23Dec2003
   POMASS =  140.115; ZVAL   =   12.000    mass and valenz
   ENMAX  =  273.042; ENMIN  =  204.781 eV

 POTCAR:    PAW_PBE O 08Apr2002
   VRHFIN =O: s2p4

   TITEL  = PAW_PBE O 08Apr2002
   POMASS =   16.000; ZVAL   =    6.000    mass and valenz
   ENMAX  =  400.000; ENMIN  =  300.000 eV

 POTCAR:    PAW_PBE Pt 04Feb2005
   VRHFIN =Pt: s1d9

   TITEL  = PAW_PBE Pt 04Feb2005
   POMASS =  195.080; ZVAL   =   10.000    mass and valenz
   ENMAX  =  230.283; ENMIN  =  172.712 eV

 POTCAR:    PAW_PBE O 08Apr2002
   VRHFIN =O: s2p4

[...]

 POTCAR:    PAW_PBE C 08Apr2002
   VRHFIN =C: s2p2

   TITEL  = PAW_PBE C 08Apr2002
   POMASS =   12.011; ZVAL   =    4.000    mass and valenz
   ENMAX  =  400.000; ENMIN  =  300.000 eV

 Optimization of the real space projectors (new method)

 maximal supplied QI-value         = 13.98
 optimisation between [QCUT,QGAM] = [ 10.21, 20.42] = [ 29.18,116.73] Ry
 Optimized for a Real-space Cutoff    1.65 Angstroem

   l    n(q)    QCUT    max X(q) W(low)/X(q) W(high)/X(q)  e(spline)
   0     10    10.208     8.553    0.18E-04    0.75E-05    0.12E-06
   0     10    10.208     8.106    0.26E-04    0.16E-04    0.24E-06
   1     10    10.208     4.160    0.93E-05    0.96E-06    0.75E-07
   1     10    10.208     3.597    0.23E-04    0.26E-04    0.15E-06
   2      9    10.208     8.183    0.11E-03    0.28E-03    0.51E-06
   2      9    10.208     6.077    0.74E-04    0.19E-03    0.37E-06
   3      9    10.208   116.013    0.19E-03    0.98E-05    0.18E-06
   3      9    10.208   108.937    0.19E-03    0.10E-04    0.18E-06
 Optimization of the real space projectors (new method)

[...]

   l    n(q)    QCUT    max X(q) W(low)/X(q) W(high)/X(q)  e(spline)
   0      9    10.150    20.381    0.17E-03    0.18E-03    0.41E-06
   0      9    10.150    15.268    0.18E-03    0.20E-03    0.43E-06
   1      9    10.150     5.964    0.16E-03    0.20E-03    0.36E-06
   1      9    10.150     5.382    0.13E-03    0.16E-03    0.33E-06
 Optimization of the real space projectors (new method)

 maximal supplied QI-value         = 25.13
 optimisation between [QCUT,QGAM] = [ 10.05, 20.36] = [ 28.30,116.06] Ry
 Optimized for a Real-space Cutoff    1.51 Angstroem

   l    n(q)    QCUT    max X(q) W(low)/X(q) W(high)/X(q)  e(spline)
   0      9    10.053   115.676    0.19E-03    0.21E-03    0.38E-06
   0      9    10.053    87.132    0.19E-03    0.21E-03    0.38E-06
   1      9    10.053     4.429    0.87E-04    0.11E-03    0.39E-06
   1      9    10.053     2.733    0.59E-04    0.62E-04    0.43E-06
  PAW_PBE Ce 23Dec2003                  :
  PAW_PBE O 08Apr2002                   :
  PAW_PBE Pt 04Feb2005                  :
  PAW_PBE O 08Apr2002                   :
  PAW_PBE C 08Apr2002                   :

 POSCAR: CeO2-110-l3-p23:
  positions in direct lattice
  velocities in cartesian coordinates
 exchange correlation table for  LEXCH =        8
   RHO(1)=    0.500       N(1)  =     2000
   RHO(2)=  100.500       N(2)  =     4000

 VTST: version 3.1, (03/28/14)

 CHAIN: initializing optimizer

 OPT: Using VASP Conjugate-Gradient optimizer
 CHAIN: Read ICHAIN            0

 POSCAR: CeO2-110-l3-p23:
  positions in direct lattice
  velocities in cartesian coordinates

 ion  position               nearest neighbor table
   1  0.771  0.167  0.000-  37 2.38  41 2.38  40 2.38  45 2.38  53 2.38  55 2.38
   2  0.771  0.500  0.000-  37 2.38  39 2.38  41 2.38  47 2.38  59 2.38  60 2.38
   3  0.271  0.167  0.000-  42 2.38  46 2.38  44 2.38  38 2.38  51 2.38  52 2.38
   4  0.771  0.833  0.000-  39 2.38  47 2.38  45 2.38  40 2.38  50 2.38  54 2.38
   5  0.271  0.500  0.000-  42 2.38  43 2.38  46 2.38  48 2.38  57 2.38  58 2.38
   6  0.271  0.833  0.000-  43 2.38  48 2.38  44 2.38  38 2.38  49 2.38  56 2.38
   7  0.521  0.000  0.079-  61 2.36  50 2.38  51 2.38  55 2.38  49 2.38  45 2.38  44 2.38  67 2.40

   8  0.521  0.667  0.079-  62 2.37  50 2.38  49 2.38  60 2.38  57 2.38  43 2.38  39 2.38  63 2.38

[...]

  31  0.022  0.001  0.384- 103 2.25 101 2.25  96 2.27  86 2.27 102 2.30  98 2.46
  32  0.524  0.000  0.387- 104 2.24 100 2.25  91 2.27  89 2.30  97 2.32  99 2.52
  33  0.012  0.672  0.384- 106 2.22  92 2.25 102 2.28 108 2.29  87 2.36  98 2.38 109 3.01
  34  0.537  0.672  0.386- 107 2.21  97 2.23  90 2.25  93 2.30  99 2.35 109 3.02
  35  0.017  0.327  0.391-  95 2.34  94 2.34 103 2.36 106 2.42 101 2.45
  36  0.530  0.325  0.393-  85 2.33  88 2.35 104 2.37 100 2.40 107 2.49 105 2.49
  37  0.646  0.333  0.000-   1 2.38   2 2.38  10 2.38
  38  0.146  0.000  0.000-   3 2.38   6 2.38   9 2.38
  39  0.646  0.667  0.000-   4 2.38   2 2.38   8 2.38
  40  0.896  0.000  0.000-   1 2.38   4 2.38   9 2.38
  41  0.896  0.333  0.000-   1 2.38   2 2.38  11 2.38
  42  0.146  0.333  0.000-   3 2.38   5 2.38  11 2.38
  43  0.396  0.667  0.000-   6 2.38   5 2.38   8 2.38
  44  0.396  0.000  0.000-   3 2.38   6 2.38   7 2.38
  45  0.646  0.000  0.000-   1 2.38   4 2.38   7 2.38
  46  0.396  0.333  0.000-   3 2.38   5 2.38  10 2.38
  47  0.896  0.667  0.000-   4 2.38   2 2.38  12 2.38
  48  0.146  0.667  0.000-   6 2.38   5 2.38  12 2.38
  49  0.396  0.833  0.079-  18 2.37   8 2.38   7 2.38   6 2.38
  50  0.646  0.833  0.079-  14 2.37   8 2.38   7 2.38   4 2.38
  51  0.396  0.167  0.079-  10 2.38   7 2.38   3 2.38  15 2.40
  52  0.146  0.167  0.079-  11 2.38   9 2.38   3 2.38  15 2.40
  53  0.896  0.167  0.079-  11 2.38   9 2.38   1 2.38  13 2.39
  54  0.896  0.833  0.079-  14 2.37  12 2.38   9 2.38   4 2.38
  55  0.646  0.167  0.079-  10 2.38   7 2.38   1 2.38  13 2.38
  56  0.146  0.833  0.079-  18 2.37  12 2.38   9 2.38   6 2.38
  57  0.396  0.500  0.079-  17 2.37  10 2.38   8 2.38   5 2.38
  58  0.146  0.500  0.079-  17 2.38  12 2.38  11 2.38   5 2.38
  59  0.896  0.500  0.079-  11 2.38  12 2.38   2 2.38  16 2.39
  60  0.646  0.500  0.079-   8 2.38  10 2.38   2 2.38  16 2.38
  61  0.646  0.001  0.157-  23 2.35   7 2.36  14 2.37  13 2.38
  62  0.396  0.666  0.157-   8 2.37  20 2.37  17 2.38  18 2.38
  63  0.646  0.666  0.157-  20 2.33   8 2.38  16 2.38  14 2.39
  64  0.895  0.666  0.156-  19 2.32  12 2.37  16 2.38  14 2.39
  65  0.147  0.002  0.157-  22 2.33  15 2.37   9 2.38  18 2.39
  66  0.896  0.001  0.156-  22 2.35   9 2.36  14 2.38  13 2.38
  67  0.396  0.002  0.158-  23 2.34  15 2.38  18 2.39   7 2.40
  68  0.147  0.666  0.156-  19 2.34  12 2.37  17 2.38  18 2.38
  69  0.396  0.332  0.158-  15 2.35  17 2.38  24 2.39  10 2.39
  70  0.896  0.334  0.157-  16 2.36  13 2.37  21 2.37  11 2.38
  71  0.645  0.334  0.158-  16 2.36  13 2.38  10 2.38  24 2.39
  72  0.146  0.333  0.157-  15 2.36  17 2.37  11 2.38  21 2.39
  73  0.645  0.167  0.235-  23 2.36  13 2.36  24 2.37  26 2.47
  74  0.646  0.835  0.234-  14 2.35  23 2.36  20 2.39  30 2.42
  75  0.396  0.830  0.235-  28 2.35  18 2.37  20 2.37  23 2.42
  76  0.897  0.499  0.235-  21 2.36  16 2.36  19 2.37  25 2.42
  77  0.147  0.834  0.234-  18 2.34  28 2.36  22 2.39  19 2.41
  78  0.645  0.498  0.236-  24 2.35  20 2.37  16 2.39  25 2.42
  79  0.396  0.169  0.240-  24 2.36  23 2.40  29 2.40  15 2.43
  80  0.897  0.167  0.235-  13 2.35  21 2.36  22 2.36  26 2.46
  81  0.394  0.500  0.235-  17 2.36  27 2.36  20 2.39  24 2.40
  82  0.147  0.498  0.235-  27 2.32  17 2.37  21 2.38  19 2.42
  83  0.147  0.170  0.237-  21 2.35  15 2.38  22 2.39  29 2.46
  84  0.897  0.835  0.233-  14 2.35  19 2.37  22 2.38  30 2.41
  85  0.648  0.329  0.315-  36 2.33  26 2.34  24 2.37  25 2.41
  86  0.898  0.001  0.311-  31 2.27  22 2.35  30 2.36  26 2.37
  87  0.143  0.667  0.308-  19 2.31  27 2.34  33 2.36  28 2.38
  88  0.396  0.347  0.320-  27 2.32  36 2.35  24 2.47  29 2.49
  89  0.646  0.001  0.312-  32 2.30  23 2.35  26 2.37  30 2.37
  90  0.650  0.671  0.311-  34 2.25  30 2.35  20 2.35  25 2.42
[...]
  97  0.642  0.835  0.389-  34 2.23  32 2.32  30 2.34
  98  0.151  0.828  0.391- 109 2.20  28 2.34  33 2.38  31 2.46
  99  0.401  0.822  0.406- 109 2.08  34 2.35  32 2.52
 100  0.404  0.157  0.391-  32 2.25  29 2.27  36 2.40
 101  0.146  0.155  0.391-  29 2.25  31 2.25  35 2.45
 102  0.904  0.839  0.389-  33 2.28  31 2.30  30 2.35
 103  0.902  0.156  0.392-  31 2.25  26 2.33  35 2.36
 104  0.646  0.153  0.394-  32 2.24  26 2.35  36 2.37
 105  0.420  0.495  0.430- 111 1.31  36 2.49
 106  0.909  0.508  0.389-  33 2.22  25 2.33  35 2.42
 107  0.642  0.510  0.388-  34 2.21  25 2.28  36 2.49
 108  0.168  0.547  0.402- 109 2.11  33 2.29  27 2.51
 109  0.274  0.693  0.420- 111 2.01  99 2.08 108 2.11  98 2.20  33 3.01  34 3.02  28 3.13
 110  0.343  0.559  0.510- 111 1.23
 111  0.358  0.566  0.461- 110 1.23 105 1.31 109 2.01

IMPORTANT INFORMATION: All symmetrisations will be switched off!
NOSYMM: (Re-)initialisation of all symmetry stuff for point group C_1.

 KPOINTS: CeO2-111-3x3-9layers         ! Comment

Automatic generation of k-mesh.
Space group operators:
 irot       det(A)        alpha          n_x          n_y          n_z        tau_x        tau_y        tau_z
    1     1.000000     0.000000     1.000000     0.000000     0.000000     0.000000     0.000000     0.000000

 Subroutine IBZKPT returns following result:

 Found      1 irreducible k-points:

 Following reciprocal coordinates:
            Coordinates               Weight
  0.000000  0.000000  0.000000      1.000000

 Following cartesian coordinates:
            Coordinates               Weight
  0.000000  0.000000  0.000000      1.000000

 I would recommend the setting:
   dimension x,y,z NGX =    72 NGY =   76 NGZ =  161
 SYSTEM =  unknown system
 POSCAR =  CeO2-110-l3-p23:

 Startparameter for this run:
   NWRITE =      2    write-flag & timer
   PREC   = accura    normal or accurate (medium, high low for compatibility)
   ISTART =      1    job   : 0-new  1-cont  2-samecut
   ICHARG =      0    charge: 1-file 2-atom 10-const
   ISPIN  =      2    spin polarized calculation?
   LNONCOLLINEAR =      F non collinear calculations
   LSORBIT =      F    spin-orbit coupling
   INIWAV =      1    electr: 0-lowe 1-rand  2-diag
   LASPH  =      T    aspherical Exc in radial PAW
   METAGGA=      F    non-selfconsistent MetaGGA calc.

 Electronic Relaxation 1
   ENCUT  =  400.0 eV  29.40 Ry    5.42 a.u.  17.91 18.99 40.29*2*pi/ulx,y,z
   ENINI  =  400.0     initial cutoff
   ENAUG  =  644.9 eV  augmentation charge cutoff
   NELM   =    100;   NELMIN=  2; NELMDL=  0     # of ELM steps
   EDIFF  = 0.1E-03   stopping-criterion for ELM
   LREAL  =      T    real-space projection
   NLSPLINE    = F    spline interpolate recip. space projectors
   LCOMPAT=      F    compatible to vasp.4.4
   GGA_COMPAT  = T    GGA compatible to vasp.4.4-vasp.4.6
   LMAXPAW     = -100 max onsite density
   LMAXMIX     =    6 max onsite mixed and CHGCAR
   VOSKOWN=      0    Vosko Wilk Nusair interpolation
   ROPT   =   -0.00025  -0.00025  -0.00025  -0.00025
[...]
   -.483E+02 0.425E+02 -.304E+04   0.487E+02 -.439E+02 0.304E+04   -.419E+00 0.131E+01 0.315E+01   0.445E-02 0.371E-02 0.269E-03
   0.686E+02 0.692E+00 0.161E+04   -.746E+02 -.699E+00 -.162E+04   0.715E+01 0.127E-01 0.510E+01   0.767E-04 0.111E-03 -.390E-03
   0.673E+02 -.158E+01 0.161E+04   -.734E+02 0.161E+01 -.162E+04   0.721E+01 -.519E-01 0.504E+01   -.127E-03 -.197E-04 0.728E-04
   0.683E+02 0.686E+00 0.161E+04   -.743E+02 -.697E+00 -.162E+04   0.717E+01 0.223E-01 0.508E+01   0.365E-04 -.928E-04 -.187E-03
   -.681E+02 -.135E+01 0.161E+04   0.741E+02 0.136E+01 -.162E+04   -.719E+01 -.361E-01 0.505E+01   0.327E-03 0.414E-04 0.103E-03
   -.679E+02 0.637E+00 0.161E+04   0.740E+02 -.645E+00 -.162E+04   -.719E+01 0.142E-01 0.504E+01   0.244E-03 0.148E-03 -.171E-04
   0.676E+02 0.110E+01 0.161E+04   -.737E+02 -.112E+01 -.162E+04   0.721E+01 0.364E-01 0.505E+01   -.249E-03 -.329E-04 -.100E-03
   -.685E+02 0.466E+00 0.161E+04   0.745E+02 -.475E+00 -.162E+04   -.719E+01 0.184E-01 0.511E+01   -.278E-04 0.979E-04 -.174E-03
   -.680E+02 -.166E+01 0.161E+04   0.740E+02 0.169E+01 -.162E+04   -.717E+01 -.514E-01 0.509E+01   0.275E-04 -.412E-04 -.999E-04
   0.688E+02 -.138E+01 0.161E+04   -.748E+02 0.140E+01 -.162E+04   0.715E+01 -.343E-01 0.511E+01   -.171E-03 -.121E-04 -.547E-04
   -.683E+02 0.119E+01 0.161E+04   0.743E+02 -.120E+01 -.162E+04   -.717E+01 0.331E-01 0.510E+01   -.490E-04 -.555E-04 -.450E-03
   -.677E+02 0.714E+00 0.161E+04   0.738E+02 -.726E+00 -.162E+04   -.719E+01 0.231E-01 0.505E+01   0.210E-03 -.171E-03 0.818E-04
   0.679E+02 0.489E+00 0.161E+04   -.740E+02 -.498E+00 -.162E+04   0.721E+01 0.177E-01 0.507E+01   -.214E-03 0.406E-04 0.824E-04
   -.645E+01 -.388E+01 0.995E+03   0.710E+01 0.384E+01 -.995E+03   -.996E+00 0.103E+00 -.653E+00   -.437E-03 0.989E-04 0.104E-03
   0.722E+01 -.221E+00 0.996E+03   -.782E+01 0.182E+00 -.996E+03   0.922E+00 0.294E-01 -.766E+00   0.136E-03 0.112E-03 0.837E-04
   -.270E+01 -.852E+00 0.987E+03   0.303E+01 0.773E+00 -.986E+03   -.709E+00 0.981E-01 -.989E+00   -.638E-03 -.360E-03 -.750E-03
   0.664E+00 -.133E+01 0.989E+03   -.104E+01 0.123E+01 -.989E+03   0.778E+00 0.139E+00 -.102E+01   0.302E-03 -.330E-03 0.198E-03
   -.422E+01 -.258E+01 0.992E+03   0.467E+01 0.251E+01 -.991E+03   -.817E+00 0.120E+00 -.109E+01   -.456E-03 -.617E-05 0.565E-04
   -.537E+01 -.734E+00 0.997E+03   0.598E+01 0.695E+00 -.997E+03   -.946E+00 0.451E-01 -.851E+00   0.360E-04 -.183E-03 0.978E-04
   0.647E+01 -.269E+01 0.991E+03   -.692E+01 0.262E+01 -.990E+03   0.776E+00 0.126E+00 -.972E+00   0.853E-03 -.468E-03 -.366E-03
   0.455E+01 -.311E+01 0.996E+03   -.522E+01 0.310E+01 -.996E+03   0.103E+01 0.329E-01 -.717E+00   0.281E-03 0.120E-03 0.729E-03
   -.680E+01 0.494E+01 0.993E+03   0.745E+01 -.484E+01 -.993E+03   -.990E+00 -.172E+00 -.750E+00   -.404E-03 0.356E-03 -.196E-03
   0.508E+01 0.411E+01 0.994E+03   -.572E+01 -.405E+01 -.994E+03   0.102E+01 -.860E-01 -.850E+00   -.247E-03 0.109E-03 0.707E-03
   -.372E+01 0.312E+01 0.993E+03   0.422E+01 -.305E+01 -.993E+03   -.857E+00 -.107E+00 -.972E+00   0.491E-03 0.133E-03 0.260E-03
   0.545E+01 0.296E+01 0.992E+03   -.595E+01 -.288E+01 -.992E+03   0.833E+00 -.113E+00 -.899E+00   0.190E-03 0.318E-03 -.574E-03
[...]
   0.400E+02 -.145E+03 -.153E+04   -.417E+02 0.153E+03 0.153E+04   0.169E+01 -.723E+01 -.427E+01   0.671E-02 0.543E-02 0.613E-02
   -.270E+02 -.180E+03 -.158E+04   0.310E+02 0.192E+03 0.158E+04   -.399E+01 -.113E+02 -.279E+01   0.722E-02 0.660E-02 0.103E-01
   0.742E+02 -.260E+02 -.157E+04   -.787E+02 0.276E+02 0.158E+04   0.453E+01 -.160E+01 -.754E+01   0.115E-01 0.207E-01 0.341E-02
   -.626E+02 -.331E+02 -.160E+04   0.668E+02 0.347E+02 0.160E+04   -.424E+01 -.158E+01 -.800E+01   0.195E-01 -.766E-03 -.576E-02
   0.103E+03 -.241E+02 -.159E+04   -.108E+03 0.249E+02 0.160E+04   0.540E+01 -.686E+00 -.698E+01   -.697E-02 -.857E-02 0.452E-02
   0.800E+02 -.222E+02 -.161E+04   -.858E+02 0.227E+02 0.161E+04   0.575E+01 -.440E+00 -.734E+01   -.374E-02 0.380E-02 0.113E-01
   -.968E+02 -.221E+02 -.161E+04   0.103E+03 0.231E+02 0.162E+04   -.637E+01 -.108E+01 -.717E+01   -.103E-01 0.240E-01 -.976E-02
   -.825E+02 0.212E+03 -.148E+04   0.998E+02 -.236E+03 0.146E+04   -.172E+02 0.242E+02 0.191E+02   0.355E-02 0.864E-02 0.175E-01
   0.780E+02 0.559E+02 -.157E+04   -.816E+02 -.581E+02 0.157E+04   0.365E+01 0.219E+01 -.635E+01   -.235E-01 0.761E-02 0.130E-01
   -.105E+03 0.620E+02 -.153E+04   0.108E+03 -.653E+02 0.154E+04   -.269E+01 0.330E+01 -.712E+01   -.220E-01 -.179E-01 0.194E-02
   0.760E+02 0.203E+03 -.152E+04   -.792E+02 -.217E+03 0.153E+04   0.313E+01 0.143E+02 -.350E+01   0.231E-01 0.786E-02 -.124E-03
   0.770E+02 -.118E+03 -.265E+04   -.734E+02 0.114E+03 0.265E+04   -.360E+01 0.388E+01 -.138E+01   0.392E-02 -.956E-02 0.156E-01
   0.313E+02 0.544E+02 -.165E+04   -.389E+02 -.576E+02 0.171E+04   0.761E+01 0.313E+01 -.521E+02   0.329E-01 0.352E-01 -.751E-02
   0.104E+02 -.556E+01 -.101E+04   -.137E+02 0.109E+02 0.101E+04   0.331E+01 -.539E+01 0.236E+01   0.126E-01 0.433E-02 0.115E-02
   0.672E+01 -.164E+02 0.367E+02   -.533E-12 -.171E-12 -.534E-11   -.685E+01 0.163E+02 -.367E+02   0.420E-01 0.930E-01 0.586E-01

 POSITION                                       TOTAL-FORCE (eV/Angst)
      8.46781      1.94101      0.00000         0.025989      0.007774      2.549119
      8.46781      5.82303      0.00000         0.022385     -0.014264      2.524890
      2.97781      1.94101      0.00000        -0.022974      0.006695      2.573956
      8.46781      9.70504      0.00000         0.021258      0.006248      2.477158
      2.97781      5.82303      0.00000        -0.018633     -0.020320      2.478275
      2.97781      9.70504      0.00000        -0.020324      0.013481      2.453345
      5.72281      0.00000      1.94101         0.006377      0.134418     -0.921123
      5.72281      7.76403      1.94101         0.035241     -0.062057     -0.934261
      0.23281      0.00000      1.94101        -0.014006      0.143187     -0.994705
      5.72281      3.88202      1.94101         0.023552     -0.067372     -0.801752
      0.23281      3.88202      1.94101        -0.027700     -0.066429     -0.872098
      0.23281      7.76403      1.94101        -0.042411     -0.058145     -1.048580
      8.46223      1.95294      3.89465         0.001157     -0.002267     -0.005199
      8.46392      9.71724      3.87530         0.001127     -0.001005      0.000821
      2.97802      1.96202      3.91308        -0.000739     -0.001465     -0.004248
      8.46276      5.80441      3.89133         0.002045      0.001123      0.004703
      2.98154      5.81053      3.87793        -0.001166      0.001822     -0.000488
      2.98220      9.70426      3.87468        -0.000101      0.000344     -0.002165
      0.20810      7.77038      5.73747        -0.005710     -0.000357      0.000623
      5.74440      7.75358      5.77629         0.006029     -0.001481      0.009693
      0.22069      3.87488      5.82441        -0.004835      0.004067     -0.001143
      0.24089      0.02621      5.75722        -0.003183     -0.002101     -0.000415
      5.72898      0.01071      5.78711         0.001490     -0.003352     -0.002206
      5.73009      3.88294      5.85819         0.002842      0.002795      0.016448
      8.48775      5.81194      7.81542        -0.021677     -0.002058      0.000332
      8.47645      1.92633      7.84327        -0.017001      0.008331      0.000845
      2.93156      5.86768      7.71785         0.016341     -0.003472     -0.001571
      2.96910      9.68468      7.71063         0.000886     -0.004189     -0.007502
      2.99604      1.95675      7.89690         0.016406      0.007598     -0.000128
      8.48294      9.74494      7.75139        -0.001761     -0.008913     -0.008405
      0.24779      0.01874      9.49307        -0.001033     -0.009817      0.000657
      5.75124      0.00923      9.55621        -0.001056      0.015643      0.003022
      0.14373      7.82538      9.48726        -0.008132      0.003311     -0.007399
      5.89410      7.82764      9.54704         0.008732     -0.032322      0.004323
      0.18754      3.80556      9.66235        -0.005848     -0.001995     -0.006127
      5.82204      3.77607      9.70680        -0.000687      0.004929      0.006883
      7.09531      3.88202      0.00000         1.128278      0.005610     -0.447877
      1.60531      0.00000      0.00000         1.153882     -0.025181     -0.474394
      7.09531      7.76403      0.00000         1.134401      0.011046     -0.454208
      9.84031      0.00000      0.00000        -1.146928     -0.017579     -0.469917
      9.84031      3.88202      0.00000        -1.147404      0.006350     -0.471594
      1.60531      3.88202      0.00000         1.152866      0.016964     -0.471398
      4.35031      7.76403      0.00000        -1.141385      0.009260     -0.449350
      4.35031      0.00000      0.00000        -1.134656     -0.024903     -0.453737
      7.09531      0.00000      0.00000         1.127758     -0.016537     -0.445514
      4.35031      3.88202      0.00000        -1.134433      0.015456     -0.450799
      9.84031      7.76403      0.00000        -1.142784      0.011350     -0.466547
      1.60531      7.76403      0.00000         1.151184      0.008850     -0.463370
      4.35031      9.70504      1.94101        -0.340111      0.060701     -0.295303
      7.09531      9.70504      1.94101         0.316687     -0.009607     -0.347893
      4.35031      1.94101      1.94101        -0.373231      0.017653     -0.266706
      1.60531      1.94101      1.94101         0.403081      0.041332     -0.301772
      9.84031      1.94101      1.94101        -0.358818      0.047767     -0.377124
      9.84031      9.70504      1.94101        -0.337177      0.005663     -0.365746
      7.09531      1.94101      1.94101         0.326713      0.051703     -0.357442
      1.60531      9.70504      1.94101         0.369648      0.025587     -0.300123
      4.35031      5.82303      1.94101        -0.347973     -0.075803     -0.326628
      1.60531      5.82303      1.94101         0.373824     -0.031374     -0.350671
      9.84031      5.82303      1.94101        -0.362041     -0.031164     -0.346434
      7.09531      5.82303      1.94101         0.339515     -0.029856     -0.343290
[...]
      7.04889      9.73840      9.60657         0.008302      0.000659      0.001645
      1.65044      9.64792      9.64655         0.000079      0.000235      0.000743
      4.40173      9.57111     10.02812        -0.010531     -0.010088     -0.004015
      4.42695      1.80626      9.64879         0.003744      0.002025      0.002958
      1.59137      1.80936      9.66231        -0.005532     -0.003819      0.008269
      9.92751      9.76451      9.61462        -0.007659      0.006963      0.000240
      9.90592      1.81907      9.68181        -0.000022     -0.003564      0.000442
      7.09407      1.76433      9.74067        -0.000288     -0.001274      0.007941
      4.60848      5.76240     10.62040         0.007424     -0.005854     -0.022071
      9.99256      5.91445      9.60491         0.003666     -0.002758     -0.011961
      7.05448      5.94782      9.57152         0.005366      0.009500     -0.001752
      1.83091      6.36734      9.92014        -0.002508     -0.000768      0.012803
      3.00118      8.07051     10.38453        -0.005547     -0.008780      0.001044
      3.75767      6.50394     12.59421        -0.022731     -0.025104      0.024943
      3.92629      6.58908     11.38096        -0.003327     -0.011606     -0.038402
    total drift:                               -0.082817      0.016541      0.051550

  FREE ENERGIE OF THE ION-ELECTRON SYSTEM (eV)
  free  energy   TOTEN  =      -907.06451569 eV

  energy  without entropy=     -907.06451569  energy(sigma->0) =     -907.06451569

 d Force = 0.1958821E-03[ 0.169E-04, 0.375E-03]  d Energy = 0.3963292E-03-0.200E-03
 d Force =-0.3674096E+01[-0.368E+01,-0.367E+01]  d Ewald  =-0.3674096E+01 0.499E-06

 stress matrix after NEB project (eV)
    -66.59052     -0.55013     -0.19012
     -0.55014   -120.62011     -0.79446
     -0.19025     -0.79475    -67.92281
  FORCES: max atom, RMS     0.042060    0.009737
  FORCE total and by dimension    0.102587    0.038402
  Stress total and by dimension  153.619518  120.620113
 Conjugate gradient step on ions:
 trial-energy change:   -0.000396  1 .order   -0.000196   -0.000375   -0.000017
  (g-gl).g = 0.227E-03      g.g   = 0.220E-03  gl.gl    = 0.552E-03
 g(Force)  = 0.220E-03   g(Stress)= 0.000E+00 ortho     = 0.207E-04
 gamma     =   0.41111
 trial     =   1.64290
 opt step  =   1.72063  (harmonic =   1.72063) maximal distance =0.00064111
 next E    =  -907.064316   (d E  =  -0.00020)

 reached required accuracy - stopping structural energy minimisation
 writing wavefunctions

 total charge

[...]

 magnetization (x)

# of ion     s       p       d       f       tot
  1       -0.000  -0.000   0.000   0.000   0.000
  2       -0.000  -0.000   0.000   0.000  -0.000
  3        0.000   0.000   0.000   0.000   0.000
  4        0.000  -0.000   0.000   0.000   0.000
  5        0.000   0.000   0.000   0.000   0.000
  6        0.000   0.000   0.000   0.000   0.000
  7       -0.000  -0.000  -0.000  -0.000  -0.000
  8       -0.000  -0.000   0.000  -0.000  -0.000
  9       -0.000  -0.000  -0.000  -0.000  -0.000
 10       -0.000  -0.000   0.000   0.000   0.000
 11       -0.000  -0.000   0.000   0.000   0.000
 12       -0.000  -0.000  -0.000  -0.000  -0.000
 13        0.000  -0.000   0.000   0.000   0.000
 14       -0.000  -0.000  -0.000  -0.000  -0.000
 15        0.000  -0.000   0.000   0.000   0.000
 16        0.000  -0.000  -0.000   0.000   0.000
 17       -0.000  -0.000  -0.000   0.000   0.000
 18       -0.000  -0.000  -0.000  -0.000  -0.000
 19       -0.000  -0.000  -0.000  -0.000  -0.000
 20       -0.000  -0.000  -0.000   0.000  -0.000
 21       -0.000  -0.000   0.000   0.002   0.002
 22       -0.000  -0.000   0.000   0.000   0.000
 23       -0.000  -0.000  -0.000  -0.000  -0.000
 24       -0.000  -0.000   0.000   0.002   0.002
 25       -0.000  -0.000  -0.000   0.002   0.002
 26       -0.000  -0.000   0.001   0.007   0.008
 27       -0.000  -0.000   0.000   0.005   0.005
 28        0.000  -0.000   0.000   0.000   0.000
 29       -0.000  -0.000   0.000   0.003   0.003
 30       -0.000  -0.000  -0.000   0.000   0.000
 31       -0.000  -0.000   0.000   0.003   0.003
 32       -0.000  -0.000  -0.000   0.001   0.001
 33       -0.000  -0.000  -0.000   0.000  -0.000
 34       -0.000  -0.000  -0.000  -0.000  -0.000
 35       -0.003  -0.006   0.012   0.976   0.979
 36       -0.004  -0.006   0.012   0.977   0.979
 37       -0.000  -0.000   0.000   0.000  -0.000
 38       -0.000  -0.000   0.000   0.000  -0.000
 39       -0.000  -0.000   0.000   0.000  -0.000
 40       -0.000  -0.000   0.000   0.000  -0.000
 41       -0.000  -0.000   0.000   0.000  -0.000
 42       -0.000  -0.000   0.000   0.000  -0.000
 43        0.000  -0.000   0.000   0.000  -0.000
 44        0.000  -0.000   0.000   0.000  -0.000
 45       -0.000  -0.000   0.000   0.000  -0.000
 46       -0.000  -0.000   0.000   0.000  -0.000
 47        0.000  -0.000   0.000   0.000  -0.000
 48       -0.000  -0.000   0.000   0.000  -0.000
 49       -0.000  -0.000   0.000   0.000  -0.000
 50       -0.000  -0.000   0.000   0.000  -0.000
 51       -0.000  -0.000   0.000   0.000  -0.000
 52       -0.000  -0.000   0.000   0.000  -0.000
 53       -0.000  -0.000   0.000   0.000  -0.000
 54       -0.000  -0.000   0.000   0.000  -0.000
 55       -0.000  -0.000   0.000   0.000  -0.000
 56        0.000  -0.000   0.000   0.000  -0.000
 57       -0.000  -0.000   0.000   0.000  -0.000
 58       -0.000  -0.000   0.000   0.000  -0.000
 59       -0.000  -0.000   0.000   0.000  -0.000
 60       -0.000  -0.000   0.000   0.000  -0.000
[...]
 97       -0.000  -0.000   0.000   0.000  -0.000
 98       -0.000  -0.000   0.000   0.000  -0.000
 99        0.000   0.000   0.000   0.000   0.000
100       -0.000  -0.004   0.000   0.000  -0.004
101       -0.000  -0.004   0.000   0.000  -0.004
102       -0.000  -0.000   0.000   0.000  -0.000
103       -0.000  -0.006   0.000   0.000  -0.007
104       -0.000  -0.004   0.000   0.000  -0.004
105       -0.000  -0.001   0.000   0.000  -0.002
106       -0.000  -0.004   0.000   0.000  -0.004
107       -0.000  -0.002   0.000   0.000  -0.003
108        0.000  -0.001   0.000   0.000  -0.001
109        0.000  -0.000   0.000   0.000   0.000
110        0.000   0.000   0.000   0.000   0.000
111        0.000   0.000   0.000   0.000   0.000
tot       -0.010  -0.062   0.025   1.979   1.932