 vasp.5.3.5 31Mar14 (build May 27 2014 14:39:49) gamma-only

 executed on           LinuxIFORT date 2020.12.26  12:13:00

 INCAR:
 POTCAR:    PAW_PBE Ce 23Dec2003
 POTCAR:    PAW_PBE O 08Apr2002
 POTCAR:    PAW_PBE Pt 04Feb2005
 POTCAR:    PAW_PBE O 08Apr2002
 POTCAR:    PAW_PBE C 08Apr2002
 POTCAR:    PAW_PBE O 08Apr2002
 POTCAR:    PAW_PBE Ce 23Dec2003
   VRHFIN =Ce : [core= Kr 4d10]

   TITEL  = PAW_PBE Ce 23Dec2003
   POMASS =  140.115; ZVAL   =   12.000    mass and valenz
   ENMAX  =  273.042; ENMIN  =  204.781 eV

 POTCAR:    PAW_PBE O 08Apr2002
   VRHFIN =O: s2p4

   TITEL  = PAW_PBE O 08Apr2002
   POMASS =   16.000; ZVAL   =    6.000    mass and valenz
   ENMAX  =  400.000; ENMIN  =  300.000 eV

 POTCAR:    PAW_PBE Pt 04Feb2005
   VRHFIN =Pt: s1d9

   TITEL  = PAW_PBE Pt 04Feb2005
   POMASS =  195.080; ZVAL   =   10.000    mass and valenz
   ENMAX  =  230.283; ENMIN  =  172.712 eV

[...]

 POTCAR:    PAW_PBE C 08Apr2002
   VRHFIN =C: s2p2

[...]

 POTCAR:    PAW_PBE O 08Apr2002
   VRHFIN =O: s2p4

   TITEL  = PAW_PBE O 08Apr2002
   POMASS =   16.000; ZVAL   =    6.000    mass and valenz
   ENMAX  =  400.000; ENMIN  =  300.000 eV

 Optimization of the real space projectors (new method)

 maximal supplied QI-value         = 13.98
 optimisation between [QCUT,QGAM] = [ 10.21, 20.42] = [ 29.18,116.73] Ry
 Optimized for a Real-space Cutoff    1.65 Angstroem

   l    n(q)    QCUT    max X(q) W(low)/X(q) W(high)/X(q)  e(spline)
   0     10    10.208     8.553    0.18E-04    0.75E-05    0.12E-06
   0     10    10.208     8.106    0.26E-04    0.16E-04    0.24E-06
   1     10    10.208     4.160    0.93E-05    0.96E-06    0.75E-07
   1     10    10.208     3.597    0.23E-04    0.26E-04    0.15E-06
   2      9    10.208     8.183    0.11E-03    0.28E-03    0.51E-06
   2      9    10.208     6.077    0.74E-04    0.19E-03    0.37E-06
   3      9    10.208   116.013    0.19E-03    0.98E-05    0.18E-06
   3      9    10.208   108.937    0.19E-03    0.10E-04    0.18E-06
 Optimization of the real space projectors (new method)

[...]

   l    n(q)    QCUT    max X(q) W(low)/X(q) W(high)/X(q)  e(spline)
   0      9    10.053   115.676    0.19E-03    0.21E-03    0.38E-06
   0      9    10.053    87.132    0.19E-03    0.21E-03    0.38E-06
   1      9    10.053     4.429    0.87E-04    0.11E-03    0.39E-06
   1      9    10.053     2.733    0.59E-04    0.62E-04    0.43E-06
 Optimization of the real space projectors (new method)

 maximal supplied QI-value         = 24.76
 optimisation between [QCUT,QGAM] = [ 10.15, 20.30] = [ 28.85,115.39] Ry
 Optimized for a Real-space Cutoff    1.51 Angstroem

   l    n(q)    QCUT    max X(q) W(low)/X(q) W(high)/X(q)  e(spline)
   0      9    10.150    20.381    0.17E-03    0.18E-03    0.41E-06
   0      9    10.150    15.268    0.18E-03    0.20E-03    0.43E-06
   1      9    10.150     5.964    0.16E-03    0.20E-03    0.36E-06
   1      9    10.150     5.382    0.13E-03    0.16E-03    0.33E-06
  PAW_PBE Ce 23Dec2003                  :
  PAW_PBE O 08Apr2002                   :
  PAW_PBE Pt 04Feb2005                  :
  PAW_PBE O 08Apr2002                   :
  PAW_PBE C 08Apr2002                   :
  PAW_PBE O 08Apr2002                   :

 POSCAR: CeO2-110-l3-p23:
  positions in direct lattice
  velocities in cartesian coordinates
 exchange correlation table for  LEXCH =        8
   RHO(1)=    0.500       N(1)  =     2000
   RHO(2)=  100.500       N(2)  =     4000

 VTST: version 3.1, (03/28/14)

 CHAIN: initializing optimizer

 OPT: Using VASP Conjugate-Gradient optimizer
 CHAIN: Read ICHAIN            0

 POSCAR: CeO2-110-l3-p23:
  positions in direct lattice
  velocities in cartesian coordinates

 ion  position               nearest neighbor table
   1  0.771  0.167  0.000-  37 2.38  41 2.38  40 2.38  45 2.38  53 2.38  55 2.38
   2  0.771  0.500  0.000-  37 2.38  39 2.38  41 2.38  47 2.38  59 2.38  60 2.38
   3  0.271  0.167  0.000-  42 2.38  46 2.38  44 2.38  38 2.38  51 2.38  52 2.38
   4  0.771  0.833  0.000-  39 2.38  47 2.38  45 2.38  40 2.38  50 2.38  54 2.38
   5  0.271  0.500  0.000-  42 2.38  43 2.38  46 2.38  48 2.38  57 2.38  58 2.38
   6  0.271  0.833  0.000-  43 2.38  48 2.38  44 2.38  38 2.38  49 2.38  56 2.38
   7  0.521  0.000  0.079-  67 2.37  61 2.38  51 2.38  55 2.38  49 2.38  50 2.38  44 2.38  45 2.38

   8  0.521  0.667  0.079-  62 2.37  63 2.38  49 2.38  50 2.38  57 2.38  60 2.38  39 2.38  43 2.38

[...]

  31  0.017  0.005  0.385- 103 2.21 101 2.22  86 2.26  96 2.28 102 2.32  98 2.48
  32  0.523  0.007  0.386-  89 2.24  91 2.24 104 2.27 100 2.28  97 2.35  99 2.48
  33  0.016  0.662  0.387- 106 2.20 108 2.24  92 2.29  87 2.31 102 2.34  98 2.56
  34  0.523  0.661  0.386-  90 2.23  93 2.24 107 2.27 105 2.29  97 2.35  99 2.48
  35  0.020  0.334  0.389-  94 2.33  95 2.35 108 2.45 106 2.47 101 2.47 103 2.47
  36  0.520  0.334  0.385-  85 2.23  88 2.24 107 2.33 105 2.33 104 2.33 100 2.34
  37  0.646  0.333  0.000-   1 2.38   2 2.38  10 2.38
  38  0.146  0.000  0.000-   3 2.38   6 2.38   9 2.38
  39  0.646  0.667  0.000-   4 2.38   2 2.38   8 2.38
  40  0.896  0.000  0.000-   1 2.38   4 2.38   9 2.38
  41  0.896  0.333  0.000-   1 2.38   2 2.38  11 2.38
  42  0.146  0.333  0.000-   3 2.38   5 2.38  11 2.38
  43  0.396  0.667  0.000-   6 2.38   5 2.38   8 2.38
  44  0.396  0.000  0.000-   3 2.38   6 2.38   7 2.38
  45  0.646  0.000  0.000-   1 2.38   4 2.38   7 2.38
  46  0.396  0.333  0.000-   3 2.38   5 2.38  10 2.38
  47  0.896  0.667  0.000-   4 2.38   2 2.38  12 2.38
  48  0.146  0.667  0.000-   6 2.38   5 2.38  12 2.38
  49  0.396  0.833  0.079-  18 2.36   8 2.38   7 2.38   6 2.38
  50  0.646  0.833  0.079-   8 2.38   7 2.38   4 2.38  14 2.38
  51  0.396  0.167  0.079-  10 2.38   7 2.38   3 2.38  15 2.39
  52  0.146  0.167  0.079-  11 2.38   9 2.38   3 2.38  15 2.39
  53  0.896  0.167  0.079-  11 2.38   9 2.38   1 2.38  13 2.39
  54  0.896  0.833  0.079-  12 2.38   9 2.38   4 2.38  14 2.38
  55  0.646  0.167  0.079-  10 2.38   7 2.38   1 2.38  13 2.39
  56  0.146  0.833  0.079-  18 2.36  12 2.38   9 2.38   6 2.38
  57  0.396  0.500  0.079-   8 2.38  10 2.38   5 2.38  17 2.40
  58  0.146  0.500  0.079-  11 2.38  12 2.38   5 2.38  17 2.39
  59  0.896  0.500  0.079-  11 2.38  12 2.38   2 2.38  16 2.39
  60  0.646  0.500  0.079-   8 2.38  10 2.38   2 2.38  16 2.39
  61  0.646  1.000  0.157-  23 2.33  14 2.37   7 2.38  13 2.39
  62  0.396  0.667  0.157-  20 2.35   8 2.37  18 2.38  17 2.38
  63  0.646  0.667  0.157-  20 2.34  14 2.37   8 2.38  16 2.39
  64  0.895  0.666  0.157-  19 2.34  12 2.37  14 2.37  16 2.38
  65  0.146  0.000  0.156-  22 2.35   9 2.36  15 2.37  18 2.38
  66  0.895  0.000  0.157-  22 2.33   9 2.37  14 2.38  13 2.38
  67  0.396  0.000  0.157-  23 2.35   7 2.37  15 2.38  18 2.38
  68  0.146  0.666  0.157-  19 2.36  12 2.37  17 2.37  18 2.38
  69  0.396  0.334  0.157-  24 2.34  15 2.38  17 2.38  10 2.39
  70  0.896  0.333  0.157-  13 2.37  16 2.37  11 2.37  21 2.38
  71  0.646  0.333  0.157-  24 2.36  10 2.37  13 2.37  16 2.37
  72  0.146  0.334  0.158-  21 2.36  17 2.37  15 2.37  11 2.39
  73  0.645  0.167  0.235-  13 2.36  23 2.36  24 2.37  26 2.45
  74  0.645  0.834  0.236-  23 2.38  20 2.38  14 2.38  30 2.42
  75  0.396  0.834  0.235-  28 2.34  18 2.37  20 2.39  23 2.39
  76  0.896  0.499  0.235-  16 2.36  21 2.37  19 2.37  25 2.44
  77  0.147  0.833  0.234-  28 2.34  18 2.35  19 2.39  22 2.40
  78  0.645  0.500  0.235-  16 2.36  20 2.36  24 2.37  25 2.46
  79  0.396  0.165  0.236-  23 2.36  15 2.37  24 2.39  29 2.44
  80  0.896  0.168  0.235-  13 2.35  21 2.37  22 2.37  26 2.44
  81  0.396  0.502  0.236-  20 2.36  17 2.37  24 2.39  27 2.45
  82  0.145  0.502  0.236-  19 2.37  17 2.37  21 2.39  27 2.42
  83  0.146  0.166  0.236-  15 2.36  22 2.37  21 2.38  29 2.42
  84  0.896  0.833  0.235-  14 2.35  19 2.37  22 2.37  30 2.44
  85  0.644  0.334  0.313-  36 2.23  24 2.38  26 2.39  25 2.39
  86  0.894  0.001  0.311-  31 2.26  22 2.36  26 2.37  30 2.38
  87  0.144  0.673  0.313-  33 2.31  28 2.33  19 2.38  27 2.42
  88  0.396  0.334  0.313-  36 2.24  24 2.39  29 2.40  27 2.41
  89  0.645  0.003  0.313-  32 2.24  26 2.37  23 2.38  30 2.41
  90  0.645  0.664  0.313-  34 2.23  25 2.37  20 2.38  30 2.41
[...]
  99  0.396  0.834  0.402- 109 2.02  32 2.48  34 2.48
 100  0.403  0.166  0.391-  32 2.28  29 2.34  36 2.34
 101  0.142  0.155  0.390-  31 2.22  29 2.28  35 2.47
 102  0.907  0.835  0.388-  30 2.31  31 2.32  33 2.34
 103  0.896  0.156  0.391-  31 2.21  26 2.30  35 2.47
 104  0.638  0.168  0.392-  32 2.27  36 2.33  26 2.36
 105  0.403  0.500  0.391-  34 2.29  36 2.33  27 2.34
 106  0.896  0.510  0.392-  33 2.20  25 2.30  35 2.47
 107  0.638  0.499  0.392-  34 2.27  36 2.33  25 2.36
 108  0.141  0.510  0.390-  33 2.24  27 2.27  35 2.45
 109  0.263  0.786  0.453- 111 1.84  98 1.97  99 2.02 112 2.04
 110  0.420  0.708  0.546- 111 1.16
 111  0.359  0.739  0.510- 110 1.16 109 1.84
 112  0.099  0.736  0.485- 113 1.32 109 2.04
 113  0.087  0.692  0.534- 112 1.32

IMPORTANT INFORMATION: All symmetrisations will be switched off!
NOSYMM: (Re-)initialisation of all symmetry stuff for point group C_1.

 KPOINTS: CeO2-111-3x3-9layers         ! Comment

Automatic generation of k-mesh.
Space group operators:
 irot       det(A)        alpha          n_x          n_y          n_z        tau_x        tau_y        tau_z
    1     1.000000     0.000000     1.000000     0.000000     0.000000     0.000000     0.000000     0.000000

 Subroutine IBZKPT returns following result:

 Found      1 irreducible k-points:

 Following reciprocal coordinates:
            Coordinates               Weight
  0.000000  0.000000  0.000000      1.000000

 Following cartesian coordinates:
            Coordinates               Weight
  0.000000  0.000000  0.000000      1.000000

 I would recommend the setting:
   dimension x,y,z NGX =    72 NGY =   76 NGZ =  161
 SYSTEM =  unknown system
 POSCAR =  CeO2-110-l3-p23:

 Startparameter for this run:
   NWRITE =      2    write-flag & timer
   PREC   = accura    normal or accurate (medium, high low for compatibility)
   ISTART =      1    job   : 0-new  1-cont  2-samecut
   ICHARG =      0    charge: 1-file 2-atom 10-const
   ISPIN  =      2    spin polarized calculation?
   LNONCOLLINEAR =      F non collinear calculations
   LSORBIT =      F    spin-orbit coupling
   INIWAV =      1    electr: 0-lowe 1-rand  2-diag
   LASPH  =      T    aspherical Exc in radial PAW
   METAGGA=      F    non-selfconsistent MetaGGA calc.

 Electronic Relaxation 1
   ENCUT  =  400.0 eV  29.40 Ry    5.42 a.u.  17.91 18.99 40.29*2*pi/ulx,y,z
   ENINI  =  400.0     initial cutoff
   ENAUG  =  644.9 eV  augmentation charge cutoff
   NELM   =    100;   NELMIN=  2; NELMDL=  0     # of ELM steps
   EDIFF  = 0.1E-03   stopping-criterion for ELM
   LREAL  =      T    real-space projection
   NLSPLINE    = F    spline interpolate recip. space projectors
   LCOMPAT=      F    compatible to vasp.4.4
   GGA_COMPAT  = T    GGA compatible to vasp.4.4-vasp.4.6
   LMAXPAW     = -100 max onsite density
   LMAXMIX     =    6 max onsite mixed and CHGCAR
   VOSKOWN=      0    Vosko Wilk Nusair interpolation
[...]
   -.199E+02 0.394E+02 -.303E+04   0.200E+02 -.392E+02 0.303E+04   -.103E+00 -.178E+00 0.619E+01   -.915E-04 0.119E-03 -.437E-02
   0.682E+02 0.350E+00 0.161E+04   -.743E+02 -.349E+00 -.161E+04   0.717E+01 -.289E-02 0.509E+01   0.484E-03 0.345E-04 -.495E-03
   0.682E+02 -.153E+01 0.161E+04   -.742E+02 0.155E+01 -.161E+04   0.720E+01 -.315E-01 0.507E+01   0.316E-03 -.196E-03 -.573E-03
   0.679E+02 0.676E+00 0.161E+04   -.740E+02 -.684E+00 -.161E+04   0.717E+01 0.162E-01 0.509E+01   0.311E-03 -.308E-04 -.690E-03
   -.675E+02 -.107E+01 0.161E+04   0.736E+02 0.108E+01 -.161E+04   -.719E+01 -.106E-01 0.505E+01   -.281E-03 -.192E-03 -.542E-03
   -.680E+02 0.333E+00 0.161E+04   0.741E+02 -.332E+00 -.161E+04   -.718E+01 -.206E-02 0.507E+01   -.445E-03 0.738E-04 -.513E-03
   0.678E+02 0.343E+00 0.161E+04   -.739E+02 -.341E+00 -.161E+04   0.719E+01 -.412E-02 0.506E+01   0.448E-03 0.691E-05 -.330E-03
   -.686E+02 0.113E+01 0.161E+04   0.746E+02 -.115E+01 -.161E+04   -.718E+01 0.411E-01 0.509E+01   -.362E-03 0.113E-03 -.503E-03
   -.686E+02 -.149E+01 0.161E+04   0.746E+02 0.151E+01 -.161E+04   -.718E+01 -.349E-01 0.509E+01   -.308E-03 -.538E-04 -.603E-03
   0.680E+02 -.103E+01 0.161E+04   -.740E+02 0.103E+01 -.161E+04   0.716E+01 -.127E-01 0.508E+01   0.334E-03 0.114E-04 -.786E-03
   -.680E+02 0.360E+00 0.161E+04   0.741E+02 -.358E+00 -.161E+04   -.718E+01 -.548E-02 0.506E+01   -.515E-03 -.358E-04 -.518E-03
   -.676E+02 0.741E+00 0.161E+04   0.736E+02 -.748E+00 -.161E+04   -.719E+01 0.133E-01 0.506E+01   -.296E-03 0.142E-03 -.550E-03
   0.682E+02 0.119E+01 0.161E+04   -.743E+02 -.121E+01 -.161E+04   0.720E+01 0.363E-01 0.508E+01   0.360E-03 0.224E-03 -.441E-03
   -.812E+01 -.575E+00 0.100E+04   0.885E+01 0.575E+00 -.100E+04   -.107E+01 0.276E-02 -.726E+00   -.114E-02 -.210E-03 -.643E-03
   0.436E+01 -.536E+00 0.998E+03   -.486E+01 0.537E+00 -.997E+03   0.840E+00 0.147E-02 -.849E+00   0.864E-03 -.190E-03 -.730E-03
   -.391E+01 -.259E+01 0.994E+03   0.433E+01 0.257E+01 -.994E+03   -.785E+00 0.453E-01 -.948E+00   -.808E-03 0.232E-03 0.246E-03
   0.341E+01 -.352E+01 0.996E+03   -.388E+01 0.349E+01 -.995E+03   0.830E+00 0.682E-01 -.881E+00   0.848E-03 0.538E-03 -.111E-03
   -.414E+01 -.150E+01 0.996E+03   0.462E+01 0.145E+01 -.996E+03   -.833E+00 0.629E-01 -.954E+00   -.482E-03 0.604E-03 -.652E-03
   -.313E+01 -.315E+00 0.999E+03   0.364E+01 0.315E+00 -.998E+03   -.861E+00 0.862E-03 -.870E+00   -.375E-04 -.312E-05 0.405E-03
   0.482E+01 -.421E+00 0.996E+03   -.530E+01 0.385E+00 -.995E+03   0.818E+00 0.287E-01 -.911E+00   0.528E-03 0.783E-03 0.141E-03
   0.699E+01 -.271E+00 0.100E+04   -.775E+01 0.273E+00 -.100E+04   0.111E+01 -.436E-02 -.699E+00   0.279E-03 -.131E-03 0.166E-04
   -.366E+01 0.313E+01 0.995E+03   0.406E+01 -.314E+01 -.994E+03   -.767E+00 -.115E-01 -.977E+00   -.792E-03 -.261E-04 0.175E-03
   0.340E+01 0.377E+01 0.996E+03   -.385E+01 -.377E+01 -.996E+03   0.813E+00 -.285E-01 -.894E+00   0.717E-03 -.421E-03 -.434E-04
   -.423E+01 0.176E+01 0.997E+03   0.472E+01 -.174E+01 -.996E+03   -.836E+00 -.290E-01 -.950E+00   -.532E-03 -.647E-03 -.725E-03
   0.468E+01 0.937E+00 0.996E+03   -.516E+01 -.923E+00 -.996E+03   0.819E+00 0.146E-02 -.922E+00   0.685E-03 -.610E-03 -.164E-03
[...]
   0.727E+02 -.345E+02 -.157E+04   -.780E+02 0.350E+02 0.158E+04   0.532E+01 -.541E+00 -.731E+01   0.299E-02 -.164E-02 0.756E-03
   -.631E+02 -.627E+02 -.157E+04   0.676E+02 0.648E+02 0.157E+04   -.446E+01 -.213E+01 -.774E+01   0.207E-02 0.154E-02 -.291E-03
   0.128E+03 -.302E+02 -.151E+04   -.131E+03 0.301E+02 0.151E+04   0.317E+01 0.151E+00 -.695E+01   0.499E-02 0.402E-03 0.520E-03
   0.871E+02 -.477E+02 -.159E+04   -.921E+02 0.504E+02 0.160E+04   0.499E+01 -.268E+01 -.779E+01   -.386E-02 0.292E-02 -.191E-02
   -.959E+02 -.223E+02 -.159E+04   0.102E+03 0.233E+02 0.160E+04   -.587E+01 -.965E+00 -.728E+01   -.209E-02 -.201E-03 -.154E-02
   0.537E+02 0.772E+02 -.153E+04   -.590E+02 -.775E+02 0.154E+04   0.530E+01 0.272E+00 -.736E+01   0.527E-02 0.143E-02 0.337E-02
   0.107E+03 0.755E+02 -.156E+04   -.112E+03 -.783E+02 0.157E+04   0.513E+01 0.278E+01 -.784E+01   -.899E-04 -.122E-02 -.617E-03
   -.103E+03 0.413E+02 -.157E+04   0.109E+03 -.421E+02 0.158E+04   -.585E+01 0.784E+00 -.734E+01   -.660E-02 -.142E-03 0.584E-03
   -.521E+02 0.116E+03 -.151E+04   0.564E+02 -.118E+03 0.151E+04   -.423E+01 0.181E+01 -.783E+01   -.627E-03 -.366E-02 -.931E-03
   -.793E+02 -.985E+02 -.250E+04   0.825E+02 0.976E+02 0.251E+04   -.325E+01 0.914E+00 -.254E+01   -.138E-02 0.453E-01 0.201E-01
   -.212E+03 0.875E+02 -.135E+04   0.246E+03 -.106E+03 0.139E+04   -.344E+02 0.183E+02 -.466E+02   0.415E-02 -.101E-01 -.115E-01
   -.144E+02 -.239E+02 -.856E+03   0.543E+01 0.287E+02 0.844E+03   0.896E+01 -.477E+01 0.120E+02   0.161E-02 -.505E-02 -.631E-02
   0.168E+03 -.490E+02 -.137E+04   -.181E+03 0.618E+02 0.134E+04   0.132E+02 -.129E+02 0.297E+02   -.324E-02 0.901E-02 0.139E-02
   0.138E+03 0.138E+03 -.150E+04   -.143E+03 -.155E+03 0.153E+04   0.533E+01 0.166E+02 -.398E+02   0.768E-03 -.817E-02 -.428E-03
   0.810E+01 -.665E+01 0.370E+02   -.853E-13 -.114E-12 0.209E-10   -.805E+01 0.654E+01 -.371E+02   -.632E-01 0.834E-01 -.397E-01

 POSITION                                       TOTAL-FORCE (eV/Angst)
      8.46781      1.94101      0.00000         0.011140      0.007003      2.528427
      8.46781      5.82303      0.00000         0.010142     -0.005066      2.527805
      2.97781      1.94101      0.00000        -0.001686      0.015856      2.536138
      8.46781      9.70504      0.00000         0.013704     -0.001367      2.506753
      2.97781      5.82303      0.00000         0.001281     -0.012956      2.541497
      2.97781      9.70504      0.00000        -0.007476     -0.002300      2.443240
      5.72281      0.00000      1.94101         0.018774      0.065118     -0.962212
      5.72281      7.76403      1.94101         0.015461     -0.068746     -0.967543
      0.23281      0.00000      1.94101        -0.044437      0.063255     -1.019243
      5.72281      3.88202      1.94101        -0.022888      0.012133     -0.954086
      0.23281      3.88202      1.94101        -0.008557      0.008276     -0.871343
      0.23281      7.76403      1.94101        -0.042747     -0.062983     -0.974997
      8.46725      1.95258      3.89226         0.004096     -0.005249      0.003559
      8.46514      9.70459      3.88940        -0.002082      0.002344      0.000598
      2.97227      1.94363      3.89911        -0.002938     -0.000691      0.002176
      8.46840      5.81589      3.89261         0.003201      0.003385      0.004408
      2.97064      5.82519      3.90138        -0.002638     -0.002328      0.000089
      2.97654      9.70473      3.86596        -0.000706      0.000027     -0.000097
      0.21518      7.76187      5.77546         0.003285     -0.004777      0.007539
      5.72714      7.75502      5.77611         0.001992      0.000182      0.002795
      0.23085      3.88461      5.81278         0.001794     -0.003578      0.005521
      0.21626      0.00785      5.75895         0.001776      0.002092      0.007323
      5.72909      0.01245      5.77463         0.003096      0.000393      0.004961
      5.71224      3.88566      5.78398         0.002370     -0.001726      0.008316
      8.47717      5.81901      7.82559         0.004064     -0.006204      0.008702
      8.47612      1.95433      7.82489         0.003921      0.003004      0.004810
      2.93998      5.83818      7.84371        -0.000685     -0.003456      0.004413
      2.96259      9.70762      7.69173        -0.000492     -0.003313      0.003733
      2.94772      1.93613      7.83612        -0.002330     -0.000805      0.004790
      8.46200      9.70731      7.81217         0.006402      0.004089      0.004974
      0.18645      0.06053      9.49922         0.000795      0.007961      0.009221
      5.74621      0.08177      9.52806         0.012927      0.001591     -0.004634
      0.17088      7.70579      9.55083         0.003648     -0.007430      0.017229
      5.74764      7.69663      9.52793         0.010559     -0.004487     -0.009706
      0.21761      3.88690      9.62254        -0.000628      0.000748      0.001610
      5.71079      3.89032      9.50729        -0.000564      0.000287      0.005673
      7.09531      3.88202      0.00000         1.134721     -0.001384     -0.453259
      1.60531      0.00000      0.00000         1.148907     -0.015324     -0.461540
      7.09531      7.76403      0.00000         1.133913      0.008014     -0.452946
      9.84031      0.00000      0.00000        -1.143955     -0.004897     -0.466100
      9.84031      3.88202      0.00000        -1.141216     -0.001069     -0.460453
      1.60531      3.88202      0.00000         1.143268     -0.002420     -0.463318
      4.35031      7.76403      0.00000        -1.140138      0.020706     -0.452677
      4.35031      0.00000      0.00000        -1.139518     -0.016827     -0.452857
      7.09531      0.00000      0.00000         1.133433     -0.005800     -0.453580
      4.35031      3.88202      0.00000        -1.139712     -0.003033     -0.461410
      9.84031      7.76403      0.00000        -1.144031      0.006821     -0.463869
      1.60531      7.76403      0.00000         1.147732      0.018586     -0.459616
      4.35031      9.70504      1.94101        -0.345160      0.002791     -0.356256
      7.09531      9.70504      1.94101         0.339982      0.002379     -0.320883
      4.35031      1.94101      1.94101        -0.363320      0.023427     -0.288511
      1.60531      1.94101      1.94101         0.365632      0.039874     -0.306227
      9.84031      1.94101      1.94101        -0.349615      0.017141     -0.345985
      9.84031      9.70504      1.94101        -0.353845      0.000809     -0.315968
      7.09531      1.94101      1.94101         0.343558     -0.005876     -0.325195
      1.60531      9.70504      1.94101         0.357880     -0.002728     -0.361334
      4.35031      5.82303      1.94101        -0.366386     -0.013178     -0.286628
      1.60531      5.82303      1.94101         0.364729     -0.025093     -0.307233
      9.84031      5.82303      1.94101        -0.349827     -0.005100     -0.346209
      7.09531      5.82303      1.94101         0.346365      0.014415     -0.324277
[...]
      4.35208      9.71233      9.92913        -0.015956      0.008878     -0.028474
      4.42270      1.93731      9.65130        -0.001024     -0.006521     -0.001559
      1.55577      1.80665      9.63996         0.000684     -0.006956      0.004958
      9.96187      9.72128      9.57514         0.002431      0.000610     -0.008384
      9.84149      1.81833      9.66815         0.004945     -0.002773      0.002709
      7.01048      1.95886      9.67837         0.001476      0.004856      0.007244
      4.42351      5.82799      9.64800        -0.003507      0.002894     -0.002056
      9.83593      5.94398      9.67409         0.003868     -0.006273     -0.007041
      7.00970      5.81196      9.67330         0.006131     -0.003887      0.006267
      1.54667      5.94431      9.62696         0.006729      0.010242      0.007414
      2.88222      9.15370     11.19725        -0.002122      0.036754      0.020657
      4.60738      8.25112     13.48629        -0.006934      0.004768      0.001349
      3.93809      8.60181     12.60168         0.019178     -0.021741     -0.023235
      1.08939      8.57164     11.98854         0.009819     -0.040762     -0.015424
      0.95163      8.05721     13.19881         0.005188     -0.031443     -0.018261
    total drift:                               -0.018277     -0.017005     -0.097106

  FREE ENERGIE OF THE ION-ELECTRON SYSTEM (eV)
  free  energy   TOTEN  =      -917.89179569 eV

  energy  without entropy=     -917.89179569  energy(sigma->0) =     -917.89179569

 d Force = 0.1580603E-03[ 0.119E-03, 0.197E-03]  d Energy = 0.1775783E-03-0.195E-04
 d Force = 0.6407885E+00[ 0.641E+00, 0.641E+00]  d Ewald  = 0.6407882E+00 0.247E-06

 stress matrix after NEB project (eV)
    -72.17910      0.17789      0.47067
      0.17789   -124.98245     -0.85983
      0.47083     -0.86001    -68.66326
  FORCES: max atom, RMS     0.044675    0.010123
  FORCE total and by dimension    0.107613    0.040762
  Stress total and by dimension  159.834488  124.982448
 Steepest descent step on ions:
 trial-energy change:   -0.000178  1 .order   -0.000158   -0.000197   -0.000119
  (g-gl).g = 0.197E-03      g.g   = 0.197E-03  gl.gl    = 0.000E+00
 g(Force)  = 0.197E-03   g(Stress)= 0.000E+00 ortho     = 0.000E+00
 gamma     =   0.00000
 trial     =   1.00000
 opt step  =   2.51147  (harmonic =   2.51147) maximal distance =0.00172022
 next E    =  -917.891866   (d E  =  -0.00025)

 reached required accuracy - stopping structural energy minimisation
 writing wavefunctions

 total charge

[...]

 magnetization (x)

# of ion     s       p       d       f       tot
  1       -0.000  -0.000  -0.000  -0.000  -0.000
  2        0.000   0.000  -0.000  -0.000  -0.000
  3       -0.000   0.000  -0.000  -0.000  -0.000
  4       -0.000   0.000  -0.000  -0.000  -0.000
  5       -0.000  -0.000  -0.000  -0.000  -0.000
  6        0.000   0.000   0.000   0.000   0.000
  7       -0.000  -0.000   0.000  -0.000  -0.000
  8        0.000   0.000  -0.000  -0.000  -0.000
  9        0.000   0.000   0.000   0.000   0.000
 10       -0.000  -0.000  -0.000  -0.000  -0.000
 11        0.000   0.000  -0.000  -0.000  -0.000
 12        0.000   0.000   0.000   0.000   0.000
 13       -0.000   0.000   0.000   0.000   0.000
 14        0.000   0.000   0.000   0.000   0.000
 15       -0.000   0.000   0.000  -0.000  -0.000
 16        0.000   0.000   0.000  -0.000  -0.000
 17       -0.000   0.000   0.000  -0.000  -0.000
 18        0.000   0.000   0.000   0.000   0.000
 19       -0.000   0.000   0.000  -0.000  -0.000
 20        0.000   0.000   0.000   0.000   0.000
 21        0.000   0.000  -0.000  -0.003  -0.003
 22        0.000   0.000  -0.000  -0.000  -0.000
 23        0.000   0.000   0.000   0.000   0.000
 24       -0.000   0.000  -0.000  -0.000  -0.000
 25        0.000   0.000   0.000  -0.000  -0.000
 26        0.000   0.000   0.000  -0.001  -0.001
 27        0.000   0.000  -0.000  -0.006  -0.006
 28       -0.000  -0.000  -0.000  -0.000  -0.000
 29        0.000   0.000  -0.000  -0.005  -0.005
 30        0.000   0.000   0.000  -0.000   0.000
 31        0.000   0.000   0.000  -0.001  -0.001
 32        0.000   0.000   0.000   0.001   0.001
 33        0.000   0.001   0.001   0.002   0.004
 34       -0.000  -0.000   0.000   0.004   0.004
 35        0.004   0.007  -0.012  -0.975  -0.977
 36        0.000   0.000   0.000  -0.000  -0.000
 37       -0.000   0.000   0.000   0.000   0.000
 38        0.000   0.000   0.000   0.000   0.000
 39        0.000   0.000   0.000   0.000   0.000
 40        0.000   0.000   0.000   0.000   0.000
 41        0.000   0.000   0.000   0.000   0.000
 42        0.000   0.000   0.000   0.000   0.000
 43        0.000   0.000   0.000   0.000   0.000
 44        0.000   0.000   0.000   0.000   0.000
 45        0.000   0.000   0.000   0.000   0.000
 46        0.000   0.000   0.000   0.000   0.000
 47        0.000   0.000   0.000   0.000   0.000
 48        0.000   0.000   0.000   0.000   0.000
 49        0.000   0.000   0.000   0.000   0.000
 50        0.000   0.000   0.000   0.000   0.000
 51        0.000   0.000   0.000   0.000   0.000
 52        0.000   0.000   0.000   0.000   0.000
 53        0.000   0.000   0.000   0.000   0.000
 54        0.000   0.000   0.000   0.000   0.000
 55        0.000   0.000   0.000   0.000   0.000
 56        0.000   0.000   0.000   0.000   0.000
 57        0.000   0.000   0.000   0.000   0.000
 58        0.000   0.000   0.000   0.000   0.000
 59        0.000   0.000   0.000   0.000   0.000
 60        0.000   0.000   0.000   0.000   0.000
[...]
 99       -0.000   0.004   0.000   0.000   0.004
100        0.000   0.000   0.000   0.000   0.000
101        0.000   0.004   0.000   0.000   0.004
102        0.000   0.001   0.000   0.000   0.001
103        0.000   0.003   0.000   0.000   0.004
104        0.000   0.000   0.000   0.000   0.000
105       -0.000   0.000   0.000   0.000   0.000
106        0.000   0.003   0.000   0.000   0.004
107       -0.000  -0.000   0.000   0.000  -0.000
108        0.000   0.005   0.000   0.000   0.005
109       -0.002  -0.000   0.052   0.000   0.050
110       -0.000  -0.001   0.000   0.000  -0.001
111       -0.000  -0.001   0.000   0.000  -0.001
112        0.005   0.286   0.000   0.000   0.291
113        0.006   0.468   0.000   0.000   0.475
tot        0.014   0.793   0.041  -0.986  -0.138